!-Generator IDFEditor 1.53
!-Option SortedOrder

!-NOTE: All comments with '!-' are ignored by the IDFEditor and are generated automatically.
!-      Use '!' comments if they need to be retained when using the IDFEditor.


!-   ===========  ALL OBJECTS IN CLASS: VERSION ===========

! HIBO TASK 1 - REFERENCED MATERIALS REVISION - 2026-09-25
! Parent: HIBO_Task1_Standard_Ground(1).idf (EnergyPlus22.2).
! Published material/reference-assembly values are identified beside each field.
! Generic references and calculated equivalents do not certify installed products.
! Geometry, HVAC, controls, gains, run periods, outputs and ground temperatures
! retain their original active values. APC-1 material is renamed to identify
! the selected Armstrong ULTIMA High NRC1940 reference, consistently in all uses.
! Floors use the existing Ground boundary and explicit fill/slab/finish layers.
! Annual results are regenerated with EnergyPlus22.2 and Omaha725500 TMY3.
! Consult the companion PPT for previous-versus-updated simulation results.
Version,
    22.2;                    !- Version Identifier


!-   ===========  ALL OBJECTS IN CLASS: SIMULATIONCONTROL ===========

SimulationControl,
    Yes,                     !- Do Zone Sizing Calculation
    Yes,                     !- Do System Sizing Calculation
    No,                      !- Do Plant Sizing Calculation
    No,                      !- Run Simulation for Sizing Periods
    Yes,                     !- Run Simulation for Weather File Run Periods
    No,                      !- Do HVAC Sizing Simulation for Sizing Periods
    3;                       !- Maximum Number of HVAC Sizing Simulation Passes


!-   ===========  ALL OBJECTS IN CLASS: BUILDING ===========

Building,
    Building 1,              !- Name
    333,                     !- North Axis {deg}
    Suburbs,                 !- Terrain
    0.04,                    !- Loads Convergence Tolerance Value {W}
    0.4,                     !- Temperature Convergence Tolerance Value {deltaC}
    FullExterior,            !- Solar Distribution
    25,                      !- Maximum Number of Warmup Days
    6;                       !- Minimum Number of Warmup Days


!-   ===========  ALL OBJECTS IN CLASS: SHADOWCALCULATION ===========

ShadowCalculation,
    PolygonClipping,         !- Shading Calculation Method
    Periodic,                !- Shading Calculation Update Frequency Method
    20,                      !- Shading Calculation Update Frequency
    15000,                   !- Maximum Figures in Shadow Overlap Calculations
    SutherlandHodgman,       !- Polygon Clipping Algorithm
    512,                     !- Pixel Counting Resolution
    SimpleSkyDiffuseModeling,!- Sky Diffuse Modeling Algorithm
    No,                      !- Output External Shading Calculation Results
    No,                      !- Disable Self-Shading Within Shading Zone Groups
    No;                      !- Disable Self-Shading From Shading Zone Groups to Other Zones


!-   ===========  ALL OBJECTS IN CLASS: SURFACECONVECTIONALGORITHM:INSIDE ===========

SurfaceConvectionAlgorithm:Inside,
    TARP;                    !- Algorithm


!-   ===========  ALL OBJECTS IN CLASS: SURFACECONVECTIONALGORITHM:OUTSIDE ===========

SurfaceConvectionAlgorithm:Outside,
    TARP;                    !- Algorithm


!-   ===========  ALL OBJECTS IN CLASS: HEATBALANCEALGORITHM ===========

HeatBalanceAlgorithm,
    ConductionTransferFunction,  !- Algorithm
    200;                     !- Surface Temperature Upper Limit {C}


!-   ===========  ALL OBJECTS IN CLASS: TIMESTEP ===========

Timestep,
    6;                       !- Number of Timesteps per Hour


!-   ===========  ALL OBJECTS IN CLASS: CONVERGENCELIMITS ===========

ConvergenceLimits,
    1,                       !- Minimum System Timestep {minutes}
    100,                     !- Maximum HVAC Iterations
    2,                       !- Minimum Plant Iterations
    8;                       !- Maximum Plant Iterations


!-   ===========  ALL OBJECTS IN CLASS: SITE:LOCATION ===========

Site:Location,
    Omaha Eppley Airfield,   !- Name
    41.32,                   !- Latitude {deg}
    -95.9,                   !- Longitude {deg}
    -6,                      !- Time Zone {hr}
    299;                     !- Elevation {m}


!-   ===========  ALL OBJECTS IN CLASS: SIZINGPERIOD:DESIGNDAY ===========

SizingPeriod:DesignDay,
    Omaha Eppley Airfield Ann Clg .4% Condns DB=>MWB,  !- Name
    7,                       !- Month
    21,                      !- Day of Month
    SummerDesignDay,         !- Day Type
    35,                      !- Maximum Dry-Bulb Temperature {C}
    11,                      !- Daily Dry-Bulb Temperature Range {deltaC}
    DefaultMultipliers,      !- Dry-Bulb Temperature Range Modifier Type
    ,                        !- Dry-Bulb Temperature Range Modifier Day Schedule Name
    Wetbulb,                 !- Humidity Condition Type
    24.5,                    !- Wetbulb or DewPoint at Maximum Dry-Bulb {C}
    ,                        !- Humidity Condition Day Schedule Name
    ,                        !- Humidity Ratio at Maximum Dry-Bulb {kgWater/kgDryAir}
    ,                        !- Enthalpy at Maximum Dry-Bulb {J/kg}
    ,                        !- Daily Wet-Bulb Temperature Range {deltaC}
    97784,                   !- Barometric Pressure {Pa}
    6.1,                     !- Wind Speed {m/s}
    180,                     !- Wind Direction {deg}
    No,                      !- Rain Indicator
    No,                      !- Snow Indicator
    No,                      !- Daylight Saving Time Indicator
    ASHRAETau,               !- Solar Model Indicator
    ,                        !- Beam Solar Day Schedule Name
    ,                        !- Diffuse Solar Day Schedule Name
    0.421,                   !- ASHRAE Clear Sky Optical Depth for Beam Irradiance (taub) {dimensionless}
    2.196,                   !- ASHRAE Clear Sky Optical Depth for Diffuse Irradiance (taud) {dimensionless}
    ,                        !- Sky Clearness
    ,                        !- Maximum Number Warmup Days
    FullResetAtBeginEnvironment;  !- Begin Environment Reset Mode

SizingPeriod:DesignDay,
    Omaha Eppley Airfield Ann Clg .4% Condns DP=>MDB,  !- Name
    7,                       !- Month
    21,                      !- Day of Month
    SummerDesignDay,         !- Day Type
    29.7,                    !- Maximum Dry-Bulb Temperature {C}
    11,                      !- Daily Dry-Bulb Temperature Range {deltaC}
    DefaultMultipliers,      !- Dry-Bulb Temperature Range Modifier Type
    ,                        !- Dry-Bulb Temperature Range Modifier Day Schedule Name
    Dewpoint,                !- Humidity Condition Type
    24.5,                    !- Wetbulb or DewPoint at Maximum Dry-Bulb {C}
    ,                        !- Humidity Condition Day Schedule Name
    ,                        !- Humidity Ratio at Maximum Dry-Bulb {kgWater/kgDryAir}
    ,                        !- Enthalpy at Maximum Dry-Bulb {J/kg}
    ,                        !- Daily Wet-Bulb Temperature Range {deltaC}
    97784,                   !- Barometric Pressure {Pa}
    6.1,                     !- Wind Speed {m/s}
    180,                     !- Wind Direction {deg}
    No,                      !- Rain Indicator
    No,                      !- Snow Indicator
    No,                      !- Daylight Saving Time Indicator
    ASHRAETau,               !- Solar Model Indicator
    ,                        !- Beam Solar Day Schedule Name
    ,                        !- Diffuse Solar Day Schedule Name
    0.421,                   !- ASHRAE Clear Sky Optical Depth for Beam Irradiance (taub) {dimensionless}
    2.196,                   !- ASHRAE Clear Sky Optical Depth for Diffuse Irradiance (taud) {dimensionless}
    ,                        !- Sky Clearness
    ,                        !- Maximum Number Warmup Days
    FullResetAtBeginEnvironment;  !- Begin Environment Reset Mode

SizingPeriod:DesignDay,
    Omaha Eppley Airfield Ann Clg .4% Condns Enth=>MDB,  !- Name
    7,                       !- Month
    21,                      !- Day of Month
    SummerDesignDay,         !- Day Type
    32,                      !- Maximum Dry-Bulb Temperature {C}
    11,                      !- Daily Dry-Bulb Temperature Range {deltaC}
    DefaultMultipliers,      !- Dry-Bulb Temperature Range Modifier Type
    ,                        !- Dry-Bulb Temperature Range Modifier Day Schedule Name
    Enthalpy,                !- Humidity Condition Type
    ,                        !- Wetbulb or DewPoint at Maximum Dry-Bulb {C}
    ,                        !- Humidity Condition Day Schedule Name
    ,                        !- Humidity Ratio at Maximum Dry-Bulb {kgWater/kgDryAir}
    82600,                   !- Enthalpy at Maximum Dry-Bulb {J/kg}
    ,                        !- Daily Wet-Bulb Temperature Range {deltaC}
    97784,                   !- Barometric Pressure {Pa}
    6.1,                     !- Wind Speed {m/s}
    180,                     !- Wind Direction {deg}
    No,                      !- Rain Indicator
    No,                      !- Snow Indicator
    No,                      !- Daylight Saving Time Indicator
    ASHRAETau,               !- Solar Model Indicator
    ,                        !- Beam Solar Day Schedule Name
    ,                        !- Diffuse Solar Day Schedule Name
    0.421,                   !- ASHRAE Clear Sky Optical Depth for Beam Irradiance (taub) {dimensionless}
    2.196,                   !- ASHRAE Clear Sky Optical Depth for Diffuse Irradiance (taud) {dimensionless}
    ,                        !- Sky Clearness
    ,                        !- Maximum Number Warmup Days
    FullResetAtBeginEnvironment;  !- Begin Environment Reset Mode

SizingPeriod:DesignDay,
    Omaha Eppley Airfield Ann Clg .4% Condns WB=>MDB,  !- Name
    7,                       !- Month
    21,                      !- Day of Month
    SummerDesignDay,         !- Day Type
    32,                      !- Maximum Dry-Bulb Temperature {C}
    11,                      !- Daily Dry-Bulb Temperature Range {deltaC}
    DefaultMultipliers,      !- Dry-Bulb Temperature Range Modifier Type
    ,                        !- Dry-Bulb Temperature Range Modifier Day Schedule Name
    Wetbulb,                 !- Humidity Condition Type
    26.1,                    !- Wetbulb or DewPoint at Maximum Dry-Bulb {C}
    ,                        !- Humidity Condition Day Schedule Name
    ,                        !- Humidity Ratio at Maximum Dry-Bulb {kgWater/kgDryAir}
    ,                        !- Enthalpy at Maximum Dry-Bulb {J/kg}
    ,                        !- Daily Wet-Bulb Temperature Range {deltaC}
    97784,                   !- Barometric Pressure {Pa}
    6.1,                     !- Wind Speed {m/s}
    180,                     !- Wind Direction {deg}
    No,                      !- Rain Indicator
    No,                      !- Snow Indicator
    No,                      !- Daylight Saving Time Indicator
    ASHRAETau,               !- Solar Model Indicator
    ,                        !- Beam Solar Day Schedule Name
    ,                        !- Diffuse Solar Day Schedule Name
    0.421,                   !- ASHRAE Clear Sky Optical Depth for Beam Irradiance (taub) {dimensionless}
    2.196,                   !- ASHRAE Clear Sky Optical Depth for Diffuse Irradiance (taud) {dimensionless}
    ,                        !- Sky Clearness
    ,                        !- Maximum Number Warmup Days
    FullResetAtBeginEnvironment;  !- Begin Environment Reset Mode

SizingPeriod:DesignDay,
    Omaha Eppley Airfield Ann Htg 99.6% Condns DB,  !- Name
    1,                       !- Month
    21,                      !- Day of Month
    WinterDesignDay,         !- Day Type
    -21.3,                   !- Maximum Dry-Bulb Temperature {C}
    0,                       !- Daily Dry-Bulb Temperature Range {deltaC}
    DefaultMultipliers,      !- Dry-Bulb Temperature Range Modifier Type
    ,                        !- Dry-Bulb Temperature Range Modifier Day Schedule Name
    Wetbulb,                 !- Humidity Condition Type
    -21.3,                   !- Wetbulb or DewPoint at Maximum Dry-Bulb {C}
    ,                        !- Humidity Condition Day Schedule Name
    ,                        !- Humidity Ratio at Maximum Dry-Bulb {kgWater/kgDryAir}
    ,                        !- Enthalpy at Maximum Dry-Bulb {J/kg}
    ,                        !- Daily Wet-Bulb Temperature Range {deltaC}
    97784,                   !- Barometric Pressure {Pa}
    4.5,                     !- Wind Speed {m/s}
    340,                     !- Wind Direction {deg}
    No,                      !- Rain Indicator
    No,                      !- Snow Indicator
    No,                      !- Daylight Saving Time Indicator
    ASHRAEClearSky,          !- Solar Model Indicator
    ,                        !- Beam Solar Day Schedule Name
    ,                        !- Diffuse Solar Day Schedule Name
    ,                        !- ASHRAE Clear Sky Optical Depth for Beam Irradiance (taub) {dimensionless}
    ,                        !- ASHRAE Clear Sky Optical Depth for Diffuse Irradiance (taud) {dimensionless}
    0,                       !- Sky Clearness
    ,                        !- Maximum Number Warmup Days
    FullResetAtBeginEnvironment;  !- Begin Environment Reset Mode

SizingPeriod:DesignDay,
    Omaha Eppley Airfield Ann Htg Wind 99.6% Condns WS=>MCDB,  !- Name
    1,                       !- Month
    21,                      !- Day of Month
    WinterDesignDay,         !- Day Type
    -8.6,                    !- Maximum Dry-Bulb Temperature {C}
    0,                       !- Daily Dry-Bulb Temperature Range {deltaC}
    DefaultMultipliers,      !- Dry-Bulb Temperature Range Modifier Type
    ,                        !- Dry-Bulb Temperature Range Modifier Day Schedule Name
    Wetbulb,                 !- Humidity Condition Type
    -8.6,                    !- Wetbulb or DewPoint at Maximum Dry-Bulb {C}
    ,                        !- Humidity Condition Day Schedule Name
    ,                        !- Humidity Ratio at Maximum Dry-Bulb {kgWater/kgDryAir}
    ,                        !- Enthalpy at Maximum Dry-Bulb {J/kg}
    ,                        !- Daily Wet-Bulb Temperature Range {deltaC}
    97784,                   !- Barometric Pressure {Pa}
    13.8,                    !- Wind Speed {m/s}
    340,                     !- Wind Direction {deg}
    No,                      !- Rain Indicator
    No,                      !- Snow Indicator
    No,                      !- Daylight Saving Time Indicator
    ASHRAEClearSky,          !- Solar Model Indicator
    ,                        !- Beam Solar Day Schedule Name
    ,                        !- Diffuse Solar Day Schedule Name
    ,                        !- ASHRAE Clear Sky Optical Depth for Beam Irradiance (taub) {dimensionless}
    ,                        !- ASHRAE Clear Sky Optical Depth for Diffuse Irradiance (taud) {dimensionless}
    0,                       !- Sky Clearness
    ,                        !- Maximum Number Warmup Days
    FullResetAtBeginEnvironment;  !- Begin Environment Reset Mode

SizingPeriod:DesignDay,
    Omaha Eppley Airfield Ann Hum_n 99.6% Condns DP=>MCDB,  !- Name
    1,                       !- Month
    21,                      !- Day of Month
    WinterDesignDay,         !- Day Type
    -20.6,                   !- Maximum Dry-Bulb Temperature {C}
    0,                       !- Daily Dry-Bulb Temperature Range {deltaC}
    DefaultMultipliers,      !- Dry-Bulb Temperature Range Modifier Type
    ,                        !- Dry-Bulb Temperature Range Modifier Day Schedule Name
    Dewpoint,                !- Humidity Condition Type
    -25.4,                   !- Wetbulb or DewPoint at Maximum Dry-Bulb {C}
    ,                        !- Humidity Condition Day Schedule Name
    ,                        !- Humidity Ratio at Maximum Dry-Bulb {kgWater/kgDryAir}
    ,                        !- Enthalpy at Maximum Dry-Bulb {J/kg}
    ,                        !- Daily Wet-Bulb Temperature Range {deltaC}
    97784,                   !- Barometric Pressure {Pa}
    4.5,                     !- Wind Speed {m/s}
    340,                     !- Wind Direction {deg}
    No,                      !- Rain Indicator
    No,                      !- Snow Indicator
    No,                      !- Daylight Saving Time Indicator
    ASHRAEClearSky,          !- Solar Model Indicator
    ,                        !- Beam Solar Day Schedule Name
    ,                        !- Diffuse Solar Day Schedule Name
    ,                        !- ASHRAE Clear Sky Optical Depth for Beam Irradiance (taub) {dimensionless}
    ,                        !- ASHRAE Clear Sky Optical Depth for Diffuse Irradiance (taud) {dimensionless}
    0,                       !- Sky Clearness
    ,                        !- Maximum Number Warmup Days
    FullResetAtBeginEnvironment;  !- Begin Environment Reset Mode


!-   ===========  ALL OBJECTS IN CLASS: RUNPERIOD ===========

RunPeriod,
    1year,                   !- Name
    1,                       !- Begin Month
    1,                       !- Begin Day of Month
    ,                        !- Begin Year
    12,                      !- End Month
    31,                      !- End Day of Month
    ,                        !- End Year
    MONDAY,                  !- Day of Week for Start Day
    No,                      !- Use Weather File Holidays and Special Days
    No,                      !- Use Weather File Daylight Saving Period
    No,                      !- Apply Weekend Holiday Rule
    Yes,                     !- Use Weather File Rain Indicators
    Yes;                     !- Use Weather File Snow Indicators


!-   ===========  ALL OBJECTS IN CLASS: SITE:GROUNDTEMPERATURE:BUILDINGSURFACE ===========

Site:GroundTemperature:BuildingSurface,
    21.5,                    !- January Ground Temperature {C}
    21.4,                    !- February Ground Temperature {C}
    21.5,                    !- March Ground Temperature {C}
    21.5,                    !- April Ground Temperature {C}
    22,                      !- May Ground Temperature {C}
    22.9,                    !- June Ground Temperature {C}
    23,                      !- July Ground Temperature {C}
    23.1,                    !- August Ground Temperature {C}
    23.1,                    !- September Ground Temperature {C}
    22.2,                    !- October Ground Temperature {C}
    21.7,                    !- November Ground Temperature {C}
    21.6;                    !- December Ground Temperature {C}


!-   ===========  ALL OBJECTS IN CLASS: SCHEDULETYPELIMITS ===========

ScheduleTypeLimits,
    Any Number;              !- Name

ScheduleTypeLimits,
    Fraction,                !- Name
    0,                       !- Lower Limit Value
    1,                       !- Upper Limit Value
    Continuous;              !- Numeric Type

ScheduleTypeLimits,
    Temperature,             !- Name
    -60,                     !- Lower Limit Value
    200,                     !- Upper Limit Value
    Continuous;              !- Numeric Type

ScheduleTypeLimits,
    Control Type,            !- Name
    0,                       !- Lower Limit Value
    4,                       !- Upper Limit Value
    Discrete;                !- Numeric Type

ScheduleTypeLimits,
    On/Off,                  !- Name
    0,                       !- Lower Limit Value
    1,                       !- Upper Limit Value
    Discrete;                !- Numeric Type

ScheduleTypeLimits,
    FlowRate,                !- Name
    0,                       !- Lower Limit Value
    10,                      !- Upper Limit Value
    Continuous;              !- Numeric Type


!-   ===========  ALL OBJECTS IN CLASS: SCHEDULE:COMPACT ===========

Schedule:Compact,
    HTGSETP_SCH_NO_OPTIMUM,  !- Name
    Temperature,             !- Schedule Type Limits Name
    Through: 12/31,          !- Field 1
    For: WeekDays,           !- Field 2
    Until: 6:00,             !- Field 3
    15.56,                   !- Field 4
    Until: 7:00,             !- Field 5
    21.11,                   !- Field 6
    Until: 19:00,            !- Field 7
    21.11,                   !- Field 8
    Until: 24:00,            !- Field 9
    15.56,                   !- Field 10
    For: Weekends,           !- Field 11
    Until: 24:00,            !- Field 12
    15.56,                   !- Field 13
    For: Holiday,            !- Field 14
    Until: 24:00,            !- Field 15
    15.56,                   !- Field 16
    For: WinterDesignDay,    !- Field 17
    Until: 24:00,            !- Field 18
    21.11,                   !- Field 19
    For: SummerDesignDay,    !- Field 20
    Until: 24:00,            !- Field 21
    15.56,                   !- Field 22
    For: CustomDay1,         !- Field 23
    Until: 24:00,            !- Field 24
    15.56,                   !- Field 25
    For: CustomDay2,         !- Field 26
    Until: 24:00,            !- Field 27
    15.56;                   !- Field 28

Schedule:Compact,
    CLGSETP_SCH_NO_OPTIMUM,  !- Name
    Temperature,             !- Schedule Type Limits Name
    Through: 12/31,          !- Field 1
    For: WeekDays,           !- Field 2
    Until: 6:00,             !- Field 3
    29.44,                   !- Field 4
    Until: 7:00,             !- Field 5
    23.89,                   !- Field 6
    Until: 18:00,            !- Field 7
    23.89,                   !- Field 8
    Until: 24:00,            !- Field 9
    29.44,                   !- Field 10
    For: Weekends,           !- Field 11
    Until: 24:00,            !- Field 12
    29.44,                   !- Field 13
    For: Holiday,            !- Field 14
    Until: 24:00,            !- Field 15
    29.44,                   !- Field 16
    For: WinterDesignDay,    !- Field 17
    Until: 24:00,            !- Field 18
    29.44,                   !- Field 19
    For: SummerDesignDay,    !- Field 20
    Until: 24:00,            !- Field 21
    23.89,                   !- Field 22
    For: CustomDay1,         !- Field 23
    Until: 24:00,            !- Field 24
    29.44,                   !- Field 25
    For: CustomDay2,         !- Field 26
    Until: 24:00,            !- Field 27
    29.44;                   !- Field 28

Schedule:Compact,
    ltg_sch_office,          !- Name
    Fraction,                !- Schedule Type Limits Name
    Through: 12/31,          !- Field 1
    For: SummerDesignDay,    !- Field 2
    Until: 24:00,            !- Field 3
    1,                       !- Field 4
    For: WinterDesignDay,    !- Field 5
    Until: 24:00,            !- Field 6
    0,                       !- Field 7
    For: Weekdays,           !- Field 8
    Until: 5:00,             !- Field 9
    0.1141323175375,         !- Field 10
    Until: 7:00,             !- Field 11
    0.145834697228125,       !- Field 12
    Until: 8:00,             !- Field 13
    0.266305615378125,       !- Field 14
    Until: 12:00,            !- Field 15
    0.570652211059375,       !- Field 16
    Until: 13:00,            !- Field 17
    0.507247451678125,       !- Field 18
    Until: 17:00,            !- Field 19
    0.570652211059375,       !- Field 20
    Until: 18:00,            !- Field 21
    0.386776533528125,       !- Field 22
    Until: 20:00,            !- Field 23
    0.266305615378125,       !- Field 24
    Until: 22:00,            !- Field 25
    0.202900855996875,       !- Field 26
    Until: 23:00,            !- Field 27
    0.145834697228125,       !- Field 28
    Until: 24:00,            !- Field 29
    0.1141323175375,         !- Field 30
    For: Saturday,           !- Field 31
    Until: 24:00,            !- Field 32
    0.1141323175375,         !- Field 33
    For: AllOtherDays,       !- Field 34
    Until: 24:00,            !- Field 35
    0.1141323175375;         !- Field 36

Schedule:Compact,
    Exterior_lighting_schedule_a,  !- Name
    fraction,                !- Schedule Type Limits Name
    Through:12/31,           !- Field 1
    For:AllDays,             !- Field 2
    Until: 06:00,            !- Field 3
    0,                       !- Field 4
    Until: 24:00,            !- Field 5
    1;                       !- Field 6

Schedule:Compact,
    OCCUPY-1,                !- Name
    Fraction,                !- Schedule Type Limits Name
    Through: 12/31,          !- Field 1
    For: Weekdays,           !- Field 2
    Until: 6:00,             !- Field 3
    0.0,                     !- Field 4
    Until: 7:00,             !- Field 5
    0.11,                    !- Field 6
    Until: 8:00,             !- Field 7
    0.21,                    !- Field 8
    Until: 12:00,            !- Field 9
    1.0,                     !- Field 10
    Until: 13:00,            !- Field 11
    0.53,                    !- Field 12
    Until: 17:00,            !- Field 13
    1.0,                     !- Field 14
    Until: 18:00,            !- Field 15
    0.32,                    !- Field 16
    Until: 22:00,            !- Field 17
    0.11,                    !- Field 18
    Until: 23:00,            !- Field 19
    0.05,                    !- Field 20
    Until: 24:00,            !- Field 21
    0.0,                     !- Field 22
    For: Weekends,           !- Field 23
    Until: 24:00,            !- Field 24
    0.0,                     !- Field 25
    For: Holiday,            !- Field 26
    Until: 24:00,            !- Field 27
    0.0,                     !- Field 28
    For: WinterDesignDay,    !- Field 29
    Until: 24:00,            !- Field 30
    0.0,                     !- Field 31
    For: SummerDesignDay,    !- Field 32
    Until: 24:00,            !- Field 33
    1.0,                     !- Field 34
    For: CustomDay1,         !- Field 35
    Until: 24:00,            !- Field 36
    0.0,                     !- Field 37
    For: CustomDay2,         !- Field 38
    Until: 24:00,            !- Field 39
    0.0;                     !- Field 40

Schedule:Compact,
    EQUIP-1,                 !- Name
    Fraction,                !- Schedule Type Limits Name
    Through: 12/31,          !- Field 1
    For: WeekDays SummerDesignDay CustomDay1 CustomDay2,  !- Field 2
    Until: 8:00,             !- Field 3
    0.02,                    !- Field 4
    Until: 9:00,             !- Field 5
    0.4,                     !- Field 6
    Until: 14:00,            !- Field 7
    0.9,                     !- Field 8
    Until: 15:00,            !- Field 9
    0.8,                     !- Field 10
    Until: 16:00,            !- Field 11
    0.7,                     !- Field 12
    Until: 18:00,            !- Field 13
    0.5,                     !- Field 14
    Until: 21:00,            !- Field 15
    0.3,                     !- Field 16
    Until: 24:00,            !- Field 17
    0.02,                    !- Field 18
    For: Weekends WinterDesignDay Holiday,  !- Field 19
    Until: 24:00,            !- Field 20
    0.02;                    !- Field 21

Schedule:Compact,
    INFIL-SCH,               !- Name
    Fraction,                !- Schedule Type Limits Name
    Through: 12/31,          !- Field 1
    For: Weekdays,           !- Field 2
    Until: 7:00,             !- Field 3
    1.0,                     !- Field 4
    Until: 19:00,            !- Field 5
    .25,                     !- Field 6
    Until: 24:00,            !- Field 7
    1.0,                     !- Field 8
    For: Saturday,           !- Field 9
    Until: 07:00,            !- Field 10
    1.0,                     !- Field 11
    Until: 18:00,            !- Field 12
    .25,                     !- Field 13
    Until: 24:00,            !- Field 14
    1,                       !- Field 15
    For: WinterDesignDay SummerDesignDay,  !- Field 16
    Until: 24:00,            !- Field 17
    1,                       !- Field 18
    For: Sunday Holidays AllOtherDays,  !- Field 19
    Until: 24:00,            !- Field 20
    1;                       !- Field 21

Schedule:Compact,
    ActSchd,                 !- Name
    Any Number,              !- Schedule Type Limits Name
    Through: 12/31,          !- Field 1
    For: AllDays,            !- Field 2
    Until: 24:00,            !- Field 3
    117.239997864;           !- Field 4

Schedule:Compact,
    AvailSched_1,            !- Name
    On/Off,                  !- Schedule Type Limits Name
    Through: 12/31,          !- Field 1
    For: WeekDays CustomDay1 CustomDay2,  !- Field 2
    Until: 24:00,            !- Field 3
    1,                       !- Field 4
    For: WeekEnds Holiday,   !- Field 5
    Until: 24:00,            !- Field 6
    1,                       !- Field 7
    For: SummerDesignDay,    !- Field 8
    Until: 24:00,            !- Field 9
    1,                       !- Field 10
    For: WinterDesignDay,    !- Field 11
    Until: 24:00,            !- Field 12
    1;                       !- Field 13

Schedule:Compact,
    Min OA Sched,            !- Name
    Fraction,                !- Schedule Type Limits Name
    Through: 12/31,          !- Field 1
    For: WeekDays CustomDay1 CustomDay2,  !- Field 2
    Until: 6:00,             !- Field 3
    0,                       !- Field 4
    Until: 23:00,            !- Field 5
    1,                       !- Field 6
    Until: 24:00,            !- Field 7
    0,                       !- Field 8
    For: WeekEnds Holiday,   !- Field 9
    Until: 24:00,            !- Field 10
    0,                       !- Field 11
    For: SummerDesignDay,    !- Field 12
    Until: 24:00,            !- Field 13
    1,                       !- Field 14
    For: WinterDesignDay,    !- Field 15
    Until: 24:00,            !- Field 16
    1;                       !- Field 17

Schedule:Compact,
    HVACTemplate-Always 4,   !- Name
    Any Number,              !- Schedule Type Limits Name
    Through: 12/31,          !- Field 1
    For: AllDays,            !- Field 2
    Until: 24:00,            !- Field 3
    4;                       !- Field 4

Schedule:Compact,
    HVACTemplate-Always 1,   !- Name
    Any Number,              !- Schedule Type Limits Name
    Through: 12/31,          !- Field 1
    For: AllDays,            !- Field 2
    Until: 24:00,            !- Field 3
    1;                       !- Field 4


!-   ===========  ALL OBJECTS IN CLASS: MATERIAL ===========

! Material reference: HIBO Metal Wall Panel 24ga Eq
! Scope: Keep .00061 m in this audit. The drawing/gauge-to-thickness basis should be retained from the geometry record; not supplied by F08.
! Scope: Generic metal-sheet proxy; actual steel grade/coating not verified.
! Source: EnergyPlus v22.2.0 ASHRAE_2005_HOF_Materials.idf; F08 Metal surface, lines 131-137; same full physical tuple, reference thickness .0008 m
! URL: https://github.com/NatLabRockies/EnergyPlus/blob/v22.2.0/datasets/ASHRAE_2005_HOF_Materials.idf
! Source: User supplied latest HIBO_Task1_Standard_Ground(1).idf
! Source: EnergyPlus v22.2.0 ASHRAE_2005_HOF_Materials.idf; F08 Metal surface, lines 131-137; same full physical tuple, reference thickness .0008 m
! URL: https://github.com/NatLabRockies/EnergyPlus/blob/v22.2.0/datasets/ASHRAE_2005_HOF_Materials.idf
! Source: EnergyPlus v22.2.0 ASHRAE_2005_HOF_Materials.idf; F08 Metal surface, lines 131-137; same full physical tuple, reference thickness .0008 m
! URL: https://github.com/NatLabRockies/EnergyPlus/blob/v22.2.0/datasets/ASHRAE_2005_HOF_Materials.idf
! Source: EnergyPlus v22.2.0 ASHRAE_2005_HOF_Materials.idf; F08 Metal surface, lines 131-137; same full physical tuple, reference thickness .0008 m
! URL: https://github.com/NatLabRockies/EnergyPlus/blob/v22.2.0/datasets/ASHRAE_2005_HOF_Materials.idf
! Source: NREL/NatLabRockies OpenStudio Prototype Buildings material library; F08 Metal surface, lines 14590-14603
! URL: https://github.com/NatLabRockies/OpenStudio-Prototype-Buildings/blob/be99118c3f52f439aa4e0e0a32829101e833f731/create_DOE_prototype_building/resources/OpenStudio_Standards_materials.json
! Source: NREL/NatLabRockies OpenStudio Prototype Buildings material library; F08 Metal surface, lines 14590-14603
! URL: https://github.com/NatLabRockies/OpenStudio-Prototype-Buildings/blob/be99118c3f52f439aa4e0e0a32829101e833f731/create_DOE_prototype_building/resources/OpenStudio_Standards_materials.json
! Source: NREL/NatLabRockies OpenStudio Prototype Buildings material library; F08 Metal surface, lines 14590-14603
! URL: https://github.com/NatLabRockies/OpenStudio-Prototype-Buildings/blob/be99118c3f52f439aa4e0e0a32829101e833f731/create_DOE_prototype_building/resources/OpenStudio_Standards_materials.json
Material,
    HIBO Metal Wall Panel 24ga Eq,  !- Name
    Smooth,                  !- Roughness
    0.00061,                 !- Thickness {m}
    45.28,                   !- Conductivity {W/m-K}
    7824,                    !- Density {kg/m3}
    500,                     !- Specific Heat {J/kg-K}
    0.9,                     !- Thermal Absorptance
    0.7,                     !- Solar Absorptance
    0.7;                     !- Visible Absorptance

! Material reference: HIBO Burnished CMU Veneer 4in Eq
! Scope: Retain gross layer thickness .0921 m (approximately 3-5/8 in). This is an equivalent hollow masonry layer, not solid concrete.
! Scope: 105-pcf concrete is the selected reference material category, not a verified HIBO unit density. Net concrete density is approximately 1681.94 kg/m3, while the energy-model gross/effective density is 832.319 kg/m3.
! Scope: The reference R includes mortar and void effects; film resistances are removed so EnergyPlus can calculate its own surface convection/radiation.
! Scope: Steady-state R and areal heat capacity are preserved for the selected reference assembly. Homogeneous k/rho/cp cannot reproduce every multidimensional hollow-block response.
! Scope: Burnishing, color, coating, actual web geometry, and actual aggregate are not established by these references. Optical defaults remain a declared convention.
! Scope: The Echelon manufacturer specification does not give a density class or numeric optical properties. The105-pcf CMHA reference category is a declared choice, not a product value.
! Source: EnergyPlus v22.2.0 ASHRAE_2005_HOF_Materials.idf; M05 200mm concrete block, lines 363-369; category only
! URL: https://github.com/NatLabRockies/EnergyPlus/blob/v22.2.0/datasets/ASHRAE_2005_HOF_Materials.idf
! Source: User supplied latest HIBO_Task1_Standard_Ground(1).idf
! Source: CMHA TEK 06-02C, R-Values and U-Factors of Single Wythe Concrete Masonry Walls + User supplied latest HIBO_Task1_Standard_Ground(1).idf; k=t/[(1.93-0.68-0.17)*0.17611018368230585]
! URL: https://www.cmha.org/resource/tek-06-02c/
! Source: CMHA TEK 06-16A, Heat Capacity (HC) Values for Concrete Masonry Walls + User supplied latest HIBO_Task1_Standard_Ground(1).idf; rho_eff=[3.3*20441.748028008555]/[880*0.0921]
! URL: https://www.cmha.org/resource/tek-06-16a/
! Source: CMHA TEK 06-16A, Heat Capacity (HC) Values for Concrete Masonry Walls; Calculating Heat Capacity: representative concrete cp=880 J/(kg K)
! URL: https://www.cmha.org/resource/tek-06-16a/
! Source: EnergyPlus v22.2.0 Input Output Reference, Material optical defaults; Material default optical fields
! URL: https://github.com/NatLabRockies/EnergyPlus/blob/v22.2.0/doc/input-output-reference/src/overview/group-surface-construction-elements.tex#L87-L97
! Source: EnergyPlus v22.2.0 Input Output Reference, Material optical defaults; Material default optical fields
! URL: https://github.com/NatLabRockies/EnergyPlus/blob/v22.2.0/doc/input-output-reference/src/overview/group-surface-construction-elements.tex#L87-L97
! Source: EnergyPlus v22.2.0 Input Output Reference, Material optical defaults; Material default optical fields
! URL: https://github.com/NatLabRockies/EnergyPlus/blob/v22.2.0/doc/input-output-reference/src/overview/group-surface-construction-elements.tex#L87-L97
Material,
    HIBO Burnished CMU Veneer 4in Eq,  !- Name
    MediumRough,             !- Roughness
    0.0921,                  !- Thickness {m}
    0.484229679367,          !- Conductivity {W/m-K}
    832.318730782,           !- Density {kg/m3}
    880,                     !- Specific Heat {J/kg-K}
    0.9,                     !- Thermal Absorptance
    0.7,                     !- Solar Absorptance
    0.7;                     !- Visible Absorptance

! Material reference: HIBO Thermax CI R7.5 Eq
! Scope: Drawing thermal-resistance target is represented by an equivalent layer; density and specific heat are a generic faced-polyiso reference.
! Source: Supplied HIBO_Task1_Standard_Ground(1).idf; HIBO Thermax CI R7.5 Eq
! Source: DuPont THERMAX Sheathing, Specifications / Standard Sizes; HIBO A0.1 §072100; Equivalent thickness from drawing R7.5; not a listed board thickness
! URL: https://www.dupont.com/products/thermax-sheathing.html
! Source: HIBO A0.1 §072100 R7.5 plus equivalent thickness; Drawing R7.5; SI conversion1IPR=.17611m2K/W
! Source: EnergyPlus v22.2.0 ASHRAE_2005_HOF_Materials.idf, Insulation: Cellular polyisocyanuratej (CFC-11 exp.) (gasimpermeable facers), lines865-871; Historical CFC-11 faced polyiso reference; density32, cp920; generic proxy for current foam
! URL: https://github.com/NatLabRockies/EnergyPlus/blob/v22.2.0/datasets/ASHRAE_2005_HOF_Materials.idf
! Source: EnergyPlus v22.2.0 ASHRAE_2005_HOF_Materials.idf, Insulation: Cellular polyisocyanuratej (CFC-11 exp.) (gasimpermeable facers), lines865-871; Historical CFC-11 faced polyiso reference; density32, cp920; generic proxy for current foam
! URL: https://github.com/NatLabRockies/EnergyPlus/blob/v22.2.0/datasets/ASHRAE_2005_HOF_Materials.idf
! Source: EnergyPlus v22.2.0 Input Output Reference, Material defaults
! URL: https://github.com/NatLabRockies/EnergyPlus/blob/v22.2.0/doc/input-output-reference/src/overview/group-surface-construction-elements.tex#L87-L97
! Source: EnergyPlus v22.2.0 Input Output Reference, Material defaults
! URL: https://github.com/NatLabRockies/EnergyPlus/blob/v22.2.0/doc/input-output-reference/src/overview/group-surface-construction-elements.tex#L87-L97
! Source: EnergyPlus v22.2.0 Input Output Reference, Material defaults
! URL: https://github.com/NatLabRockies/EnergyPlus/blob/v22.2.0/doc/input-output-reference/src/overview/group-surface-construction-elements.tex#L87-L97
Material,
    HIBO Thermax CI R7.5 Eq, !- Name
    MediumRough,             !- Roughness
    0.0272,                  !- Thickness {m}
    0.0205931898624,         !- Conductivity {W/m-K}
    32,                      !- Density {kg/m3}
    920,                     !- Specific Heat {J/kg-K}
    0.9,                     !- Thermal Absorptance
    0.7,                     !- Solar Absorptance
    0.7;                     !- Visible Absorptance

! Material reference: HIBO Exterior Gypsum Sheathing 5-8in
! Scope: Retain 5/8 in=.015875 m drawing dimension; adapt reference material thickness.
! Scope: Generic gypsum-board proxy. Exterior sheathing product/facing differs from generic interior gypsum and remains a stated proxy choice.
! Source: EnergyPlus v22.2.0 ASHRAE_2005_HOF_Materials.idf; G01a 19mm gypsum board, lines 227-233 (G01 16mm, lines 219-225, has same k/rho/cp)
! URL: https://github.com/NatLabRockies/EnergyPlus/blob/v22.2.0/datasets/ASHRAE_2005_HOF_Materials.idf
! Source: UNO-HCIBO-Lab 95% Check Set, 24 Feb 2022, A1.1 / A1.2; 5/8 in gypsum
! Source: EnergyPlus v22.2.0 ASHRAE_2005_HOF_Materials.idf; G01a 19mm gypsum board, lines 227-233 (G01 16mm, lines 219-225, has same k/rho/cp)
! URL: https://github.com/NatLabRockies/EnergyPlus/blob/v22.2.0/datasets/ASHRAE_2005_HOF_Materials.idf
! Source: EnergyPlus v22.2.0 ASHRAE_2005_HOF_Materials.idf; G01a 19mm gypsum board, lines 227-233 (G01 16mm, lines 219-225, has same k/rho/cp)
! URL: https://github.com/NatLabRockies/EnergyPlus/blob/v22.2.0/datasets/ASHRAE_2005_HOF_Materials.idf
! Source: EnergyPlus v22.2.0 ASHRAE_2005_HOF_Materials.idf; G01a 19mm gypsum board, lines 227-233 (G01 16mm, lines 219-225, has same k/rho/cp)
! URL: https://github.com/NatLabRockies/EnergyPlus/blob/v22.2.0/datasets/ASHRAE_2005_HOF_Materials.idf
! Source: NREL/NatLabRockies OpenStudio Prototype Buildings material library; G01a 19mm gypsum board, lines 16033-16046
! URL: https://github.com/NatLabRockies/OpenStudio-Prototype-Buildings/blob/be99118c3f52f439aa4e0e0a32829101e833f731/create_DOE_prototype_building/resources/OpenStudio_Standards_materials.json
! Source: NREL/NatLabRockies OpenStudio Prototype Buildings material library; G01a 19mm gypsum board, lines 16033-16046
! URL: https://github.com/NatLabRockies/OpenStudio-Prototype-Buildings/blob/be99118c3f52f439aa4e0e0a32829101e833f731/create_DOE_prototype_building/resources/OpenStudio_Standards_materials.json
! Source: NREL/NatLabRockies OpenStudio Prototype Buildings material library; G01a 19mm gypsum board, lines 16033-16046
! URL: https://github.com/NatLabRockies/OpenStudio-Prototype-Buildings/blob/be99118c3f52f439aa4e0e0a32829101e833f731/create_DOE_prototype_building/resources/OpenStudio_Standards_materials.json
Material,
    HIBO Exterior Gypsum Sheathing 5-8in,  !- Name
    MediumSmooth,            !- Roughness
    0.015875,                !- Thickness {m}
    0.16,                    !- Conductivity {W/m-K}
    800,                     !- Density {kg/m3}
    1090,                    !- Specific Heat {J/kg-K}
    0.9,                     !- Thermal Absorptance
    0.4,                     !- Solar Absorptance
    0.4;                     !- Visible Absorptance

! Material reference: HIBO CFS Batt R13 6in Effective
! Scope: FullPDF doesnotgive wholewallstudgauge,spacing or actualbattthickness. R6 table exists but its2x4case differsfromthis6inlayer. PurebattI05 cannot replace steel+batt effective k/rho/cp. No defensible exact new tuple withoutadditionalreference-section choice.
! Source: Supplied HIBO_Task1_Standard_Ground(1).idf; HIBO CFS Batt R13 6in Effective
! Source: UNO-HCIBO-Lab 95% Check Set, 24 Feb 2022, A1.2; 6 in framing
! Source: Supplied HIBO_Task1_Standard_Ground(1).idf; HIBO CFS Batt R13 6in Effective
! Source: Supplied HIBO_Task1_Standard_Ground(1).idf; HIBO CFS Batt R13 6in Effective
! Source: Supplied HIBO_Task1_Standard_Ground(1).idf; HIBO CFS Batt R13 6in Effective
! Source: Supplied HIBO_Task1_Standard_Ground(1).idf; HIBO CFS Batt R13 6in Effective
! Source: Supplied HIBO_Task1_Standard_Ground(1).idf; HIBO CFS Batt R13 6in Effective
! Source: Supplied HIBO_Task1_Standard_Ground(1).idf; HIBO CFS Batt R13 6in Effective
Material,
    HIBO CFS Batt R13 6in Effective,  !- Name
    MediumRough,             !- Roughness
    0.1524,                  !- Thickness {m}
    0.14423,                 !- Conductivity {W/m-K}
    50,                      !- Density {kg/m3}
    700,                     !- Specific Heat {J/kg-K}
    0.9,                     !- Thermal Absorptance
    0.5,                     !- Solar Absorptance
    0.5;                     !- Visible Absorptance

! Material reference: HIBO Gypsum Board Type X 5-8in
! Scope: Retain 5/8 in=.015875 m drawing dimension; adapt reference material thickness.
! Scope: Generic gypsum-board proxy; Type X fire rating does not independently verify these thermal inputs or surface paint.
! Source: EnergyPlus v22.2.0 ASHRAE_2005_HOF_Materials.idf; G01a 19mm gypsum board, lines 227-233 (G01 16mm, lines 219-225, has same k/rho/cp)
! URL: https://github.com/NatLabRockies/EnergyPlus/blob/v22.2.0/datasets/ASHRAE_2005_HOF_Materials.idf
! Source: UNO-HCIBO-Lab 95% Check Set, 24 Feb 2022, A1.1 / A1.2; 5/8 in gypsum
! Source: EnergyPlus v22.2.0 ASHRAE_2005_HOF_Materials.idf; G01a 19mm gypsum board, lines 227-233 (G01 16mm, lines 219-225, has same k/rho/cp)
! URL: https://github.com/NatLabRockies/EnergyPlus/blob/v22.2.0/datasets/ASHRAE_2005_HOF_Materials.idf
! Source: EnergyPlus v22.2.0 ASHRAE_2005_HOF_Materials.idf; G01a 19mm gypsum board, lines 227-233 (G01 16mm, lines 219-225, has same k/rho/cp)
! URL: https://github.com/NatLabRockies/EnergyPlus/blob/v22.2.0/datasets/ASHRAE_2005_HOF_Materials.idf
! Source: EnergyPlus v22.2.0 ASHRAE_2005_HOF_Materials.idf; G01a 19mm gypsum board, lines 227-233 (G01 16mm, lines 219-225, has same k/rho/cp)
! URL: https://github.com/NatLabRockies/EnergyPlus/blob/v22.2.0/datasets/ASHRAE_2005_HOF_Materials.idf
! Source: NREL/NatLabRockies OpenStudio Prototype Buildings material library; G01a 19mm gypsum board, lines 16033-16046
! URL: https://github.com/NatLabRockies/OpenStudio-Prototype-Buildings/blob/be99118c3f52f439aa4e0e0a32829101e833f731/create_DOE_prototype_building/resources/OpenStudio_Standards_materials.json
! Source: NREL/NatLabRockies OpenStudio Prototype Buildings material library; G01a 19mm gypsum board, lines 16033-16046
! URL: https://github.com/NatLabRockies/OpenStudio-Prototype-Buildings/blob/be99118c3f52f439aa4e0e0a32829101e833f731/create_DOE_prototype_building/resources/OpenStudio_Standards_materials.json
! Source: NREL/NatLabRockies OpenStudio Prototype Buildings material library; G01a 19mm gypsum board, lines 16033-16046
! URL: https://github.com/NatLabRockies/OpenStudio-Prototype-Buildings/blob/be99118c3f52f439aa4e0e0a32829101e833f731/create_DOE_prototype_building/resources/OpenStudio_Standards_materials.json
Material,
    HIBO Gypsum Board Type X 5-8in,  !- Name
    MediumSmooth,            !- Roughness
    0.015875,                !- Thickness {m}
    0.16,                    !- Conductivity {W/m-K}
    800,                     !- Density {kg/m3}
    1090,                    !- Specific Heat {J/kg-K}
    0.9,                     !- Thermal Absorptance
    0.4,                     !- Solar Absorptance
    0.4;                     !- Visible Absorptance

! Material reference: HIBO EPDM Membrane 45mil
! Scope: Generic EPDM design properties from BS EN12524; surface absorptances use a separate generic roof-surface reference.
! Source: EnergyPlus v22.2.0 DOE RefBldgMediumOfficeNew2004_Chicago.idf, Roof Membrane; VeryRough; thermal.9, solar.7, visible.7; generic roof surface only
! URL: https://github.com/NatLabRockies/EnergyPlus/blob/v22.2.0/testfiles/RefBldgMediumOfficeNew2004_Chicago.idf
! Source: UNO-HCIBO-Lab 95% Check Set, 24 Feb 2022, A0.1 §075323; 45 mil EPDM
! Source: BS EN 12524:2000, Table 1 continued, printed page6, EPDM; Ethylene propylene diene monomer (EPDM): k.25, density1150, cp1000
! URL: https://nobelcert.com/DataFiles/FreeUpload/EN%2012524-2000.pdf
! Source: BS EN 12524:2000, Table 1 continued, printed page6, EPDM; Ethylene propylene diene monomer (EPDM): k.25, density1150, cp1000
! URL: https://nobelcert.com/DataFiles/FreeUpload/EN%2012524-2000.pdf
! Source: BS EN 12524:2000, Table 1 continued, printed page6, EPDM; Ethylene propylene diene monomer (EPDM): k.25, density1150, cp1000
! URL: https://nobelcert.com/DataFiles/FreeUpload/EN%2012524-2000.pdf
! Source: EnergyPlus v22.2.0 DOE RefBldgMediumOfficeNew2004_Chicago.idf, Roof Membrane; VeryRough; thermal.9, solar.7, visible.7; generic roof surface only
! URL: https://github.com/NatLabRockies/EnergyPlus/blob/v22.2.0/testfiles/RefBldgMediumOfficeNew2004_Chicago.idf
! Source: EnergyPlus v22.2.0 DOE RefBldgMediumOfficeNew2004_Chicago.idf, Roof Membrane; VeryRough; thermal.9, solar.7, visible.7; generic roof surface only
! URL: https://github.com/NatLabRockies/EnergyPlus/blob/v22.2.0/testfiles/RefBldgMediumOfficeNew2004_Chicago.idf
! Source: EnergyPlus v22.2.0 DOE RefBldgMediumOfficeNew2004_Chicago.idf, Roof Membrane; VeryRough; thermal.9, solar.7, visible.7; generic roof surface only
! URL: https://github.com/NatLabRockies/EnergyPlus/blob/v22.2.0/testfiles/RefBldgMediumOfficeNew2004_Chicago.idf
Material,
    HIBO EPDM Membrane 45mil,!- Name
    VeryRough,               !- Roughness
    0.001143,                !- Thickness {m}
    0.25,                    !- Conductivity {W/m-K}
    1150,                    !- Density {kg/m3}
    1000,                    !- Specific Heat {J/kg-K}
    0.9,                     !- Thermal Absorptance
    0.7,                     !- Solar Absorptance
    0.7;                     !- Visible Absorptance

! Material reference: HIBO Roof Polyiso 4in R30 Eq
! Scope: Drawing thermal-resistance target is represented by an equivalent layer; density and specific heat are a generic faced-polyiso reference.
! Source: Supplied HIBO_Task1_Standard_Ground(1).idf; HIBO Roof Polyiso 4in R30 Eq
! Source: UNO-HCIBO-Lab 95% Check Set, 24 Feb 2022, A1.2, section A2; 4 in roof insulation
! Source: HIBO A0.1 §075323 R30 and A1.2 4in; Drawing R30 LTTR target and4in layer
! Source: EnergyPlus v22.2.0 ASHRAE_2005_HOF_Materials.idf, Insulation: Cellular polyisocyanuratej (CFC-11 exp.) (gasimpermeable facers), lines865-871; Historical CFC-11 faced polyiso reference; density32, cp920; generic proxy for current foam
! URL: https://github.com/NatLabRockies/EnergyPlus/blob/v22.2.0/datasets/ASHRAE_2005_HOF_Materials.idf
! Source: EnergyPlus v22.2.0 ASHRAE_2005_HOF_Materials.idf, Insulation: Cellular polyisocyanuratej (CFC-11 exp.) (gasimpermeable facers), lines865-871; Historical CFC-11 faced polyiso reference; density32, cp920; generic proxy for current foam
! URL: https://github.com/NatLabRockies/EnergyPlus/blob/v22.2.0/datasets/ASHRAE_2005_HOF_Materials.idf
! Source: EnergyPlus v22.2.0 Input Output Reference, Material defaults
! URL: https://github.com/NatLabRockies/EnergyPlus/blob/v22.2.0/doc/input-output-reference/src/overview/group-surface-construction-elements.tex#L87-L97
! Source: EnergyPlus v22.2.0 Input Output Reference, Material defaults
! URL: https://github.com/NatLabRockies/EnergyPlus/blob/v22.2.0/doc/input-output-reference/src/overview/group-surface-construction-elements.tex#L87-L97
! Source: EnergyPlus v22.2.0 Input Output Reference, Material defaults
! URL: https://github.com/NatLabRockies/EnergyPlus/blob/v22.2.0/doc/input-output-reference/src/overview/group-surface-construction-elements.tex#L87-L97
Material,
    HIBO Roof Polyiso 4in R30 Eq,  !- Name
    MediumRough,             !- Roughness
    0.1016,                  !- Thickness {m}
    0.0192304052391,         !- Conductivity {W/m-K}
    32,                      !- Density {kg/m3}
    920,                     !- Specific Heat {J/kg-K}
    0.9,                     !- Thermal Absorptance
    0.7,                     !- Solar Absorptance
    0.7;                     !- Visible Absorptance

! Material reference: HIBO Metal Roof Deck Eq
! Scope: The retained .0015 m also exactly matches the selected reference, but actual deck gauge/corrugation is not established by that match.
! Scope: Use the full coherent reference tuple: cp is 418.4, not 500. Reference visible absorptance .3 differs from solar .7 and is copied as published.
! Source: EnergyPlus v22.2.0 DOE RefBldgMediumOfficeNew2004_Chicago.idf; Material Metal Decking, lines 509-519
! URL: https://github.com/NatLabRockies/EnergyPlus/blob/v22.2.0/testfiles/RefBldgMediumOfficeNew2004_Chicago.idf
! Source: EnergyPlus v22.2.0 DOE RefBldgMediumOfficeNew2004_Chicago.idf; Material Metal Decking, t=0.0015 m
! URL: https://github.com/NatLabRockies/EnergyPlus/blob/v22.2.0/testfiles/RefBldgMediumOfficeNew2004_Chicago.idf
! Source: EnergyPlus v22.2.0 DOE RefBldgMediumOfficeNew2004_Chicago.idf; Material Metal Decking, lines 509-519
! URL: https://github.com/NatLabRockies/EnergyPlus/blob/v22.2.0/testfiles/RefBldgMediumOfficeNew2004_Chicago.idf
! Source: EnergyPlus v22.2.0 DOE RefBldgMediumOfficeNew2004_Chicago.idf; Material Metal Decking, lines 509-519
! URL: https://github.com/NatLabRockies/EnergyPlus/blob/v22.2.0/testfiles/RefBldgMediumOfficeNew2004_Chicago.idf
! Source: EnergyPlus v22.2.0 DOE RefBldgMediumOfficeNew2004_Chicago.idf; Material Metal Decking, lines 509-519
! URL: https://github.com/NatLabRockies/EnergyPlus/blob/v22.2.0/testfiles/RefBldgMediumOfficeNew2004_Chicago.idf
! Source: EnergyPlus v22.2.0 DOE RefBldgMediumOfficeNew2004_Chicago.idf; Material Metal Decking, lines 509-519
! URL: https://github.com/NatLabRockies/EnergyPlus/blob/v22.2.0/testfiles/RefBldgMediumOfficeNew2004_Chicago.idf
! Source: EnergyPlus v22.2.0 DOE RefBldgMediumOfficeNew2004_Chicago.idf; Material Metal Decking, lines 509-519
! URL: https://github.com/NatLabRockies/EnergyPlus/blob/v22.2.0/testfiles/RefBldgMediumOfficeNew2004_Chicago.idf
! Source: EnergyPlus v22.2.0 DOE RefBldgMediumOfficeNew2004_Chicago.idf; Material Metal Decking, lines 509-519
! URL: https://github.com/NatLabRockies/EnergyPlus/blob/v22.2.0/testfiles/RefBldgMediumOfficeNew2004_Chicago.idf
Material,
    HIBO Metal Roof Deck Eq, !- Name
    MediumSmooth,            !- Roughness
    0.0015,                  !- Thickness {m}
    45.006,                  !- Conductivity {W/m-K}
    7680,                    !- Density {kg/m3}
    418.4,                   !- Specific Heat {J/kg-K}
    0.9,                     !- Thermal Absorptance
    0.7,                     !- Solar Absorptance
    0.3;                     !- Visible Absorptance

! Material reference: HIBO Concrete Slab 4in
! Scope: Retain 4 in=.1016 m; exact reference thickness match. Actual aggregate/mix not verified.
! Scope: Replace rounded cp=837 with exact reference cp=836.8. Finishes copy generic example object, not installed slab finish.
! Source: EnergyPlus v22.2.0 DOE RefBldgMediumOfficeNew2004_Chicago.idf; Material MAT-CC05 4 HW CONCRETE, lines 531-541
! URL: https://github.com/NatLabRockies/EnergyPlus/blob/v22.2.0/testfiles/RefBldgMediumOfficeNew2004_Chicago.idf
! Source: UNO-HCIBO-Lab 95% Check Set, 24 Feb 2022, A1.2, section A2; 4 in slab / granular fill
! Source: EnergyPlus v22.2.0 DOE RefBldgMediumOfficeNew2004_Chicago.idf; Material MAT-CC05 4 HW CONCRETE, lines 531-541
! URL: https://github.com/NatLabRockies/EnergyPlus/blob/v22.2.0/testfiles/RefBldgMediumOfficeNew2004_Chicago.idf
! Source: EnergyPlus v22.2.0 DOE RefBldgMediumOfficeNew2004_Chicago.idf; Material MAT-CC05 4 HW CONCRETE, lines 531-541
! URL: https://github.com/NatLabRockies/EnergyPlus/blob/v22.2.0/testfiles/RefBldgMediumOfficeNew2004_Chicago.idf
! Source: EnergyPlus v22.2.0 DOE RefBldgMediumOfficeNew2004_Chicago.idf; Material MAT-CC05 4 HW CONCRETE, lines 531-541
! URL: https://github.com/NatLabRockies/EnergyPlus/blob/v22.2.0/testfiles/RefBldgMediumOfficeNew2004_Chicago.idf
! Source: EnergyPlus v22.2.0 DOE RefBldgMediumOfficeNew2004_Chicago.idf; Material MAT-CC05 4 HW CONCRETE, lines 531-541
! URL: https://github.com/NatLabRockies/EnergyPlus/blob/v22.2.0/testfiles/RefBldgMediumOfficeNew2004_Chicago.idf
! Source: EnergyPlus v22.2.0 DOE RefBldgMediumOfficeNew2004_Chicago.idf; Material MAT-CC05 4 HW CONCRETE, lines 531-541
! URL: https://github.com/NatLabRockies/EnergyPlus/blob/v22.2.0/testfiles/RefBldgMediumOfficeNew2004_Chicago.idf
! Source: EnergyPlus v22.2.0 DOE RefBldgMediumOfficeNew2004_Chicago.idf; Material MAT-CC05 4 HW CONCRETE, lines 531-541
! URL: https://github.com/NatLabRockies/EnergyPlus/blob/v22.2.0/testfiles/RefBldgMediumOfficeNew2004_Chicago.idf
Material,
    HIBO Concrete Slab 4in,  !- Name
    Rough,                   !- Roughness
    0.1016,                  !- Thickness {m}
    1.311,                   !- Conductivity {W/m-K}
    2240,                    !- Density {kg/m3}
    836.8,                   !- Specific Heat {J/kg-K}
    0.9,                     !- Thermal Absorptance
    0.7,                     !- Solar Absorptance
    0.7;                     !- Visible Absorptance

! Material reference: HIBO Granular Fill 4in Eq
! Scope: Retain 4 in=.1016 m. Gravel proxy does not verify the actual fill grading, moisture or compaction.
! Scope: Roughness is retained as an interface convention; no measured roughness category is supplied by B6. Fill is buried under the slab; its optical values do not represent exposed ground-surface measurements.
! Source: User supplied latest HIBO_Task1_Standard_Ground(1).idf
! Source: UNO-HCIBO-Lab 95% Check Set, 24 Feb 2022, A1.2, section A2; 4 in slab / granular fill
! Source: EnergyPlus v22.2.0 Auxiliary Programs, GroundHeatTransfer:Basement:MatlProps; All three Gravel fields of GroundHeatTransfer:Basement:MatlProps; also sample object
! URL: https://github.com/NatLabRockies/EnergyPlus/blob/v22.2.0/doc/auxiliary-programs/src/ground-heat-transfer-in-energyplus/description-of-the-objects-in-the-basementght.tex
! Source: EnergyPlus v22.2.0 Auxiliary Programs, GroundHeatTransfer:Basement:MatlProps; All three Gravel fields of GroundHeatTransfer:Basement:MatlProps; also sample object
! URL: https://github.com/NatLabRockies/EnergyPlus/blob/v22.2.0/doc/auxiliary-programs/src/ground-heat-transfer-in-energyplus/description-of-the-objects-in-the-basementght.tex
! Source: EnergyPlus v22.2.0 Auxiliary Programs, GroundHeatTransfer:Basement:MatlProps; All three Gravel fields of GroundHeatTransfer:Basement:MatlProps; also sample object
! URL: https://github.com/NatLabRockies/EnergyPlus/blob/v22.2.0/doc/auxiliary-programs/src/ground-heat-transfer-in-energyplus/description-of-the-objects-in-the-basementght.tex
! Source: EnergyPlus v22.2.0 Input Output Reference, Material optical defaults; Material default optical fields
! URL: https://github.com/NatLabRockies/EnergyPlus/blob/v22.2.0/doc/input-output-reference/src/overview/group-surface-construction-elements.tex#L87-L97
! Source: EnergyPlus v22.2.0 Input Output Reference, Material optical defaults; Material default optical fields
! URL: https://github.com/NatLabRockies/EnergyPlus/blob/v22.2.0/doc/input-output-reference/src/overview/group-surface-construction-elements.tex#L87-L97
! Source: EnergyPlus v22.2.0 Input Output Reference, Material optical defaults; Material default optical fields
! URL: https://github.com/NatLabRockies/EnergyPlus/blob/v22.2.0/doc/input-output-reference/src/overview/group-surface-construction-elements.tex#L87-L97
Material,
    HIBO Granular Fill 4in Eq,  !- Name
    Rough,                   !- Roughness
    0.1016,                  !- Thickness {m}
    1.9,                     !- Conductivity {W/m-K}
    2000,                    !- Density {kg/m3}
    720,                     !- Specific Heat {J/kg-K}
    0.9,                     !- Thermal Absorptance
    0.7,                     !- Solar Absorptance
    0.7;                     !- Visible Absorptance

! Material reference: HIBO APC-1 Ultima High NRC 1940 Reference
! Scope: Drawings specify Armstrong ULTIMA High NRC24x24 family. Item1940 is the selected reference SKU, not a confirmed installed SKU. Manufacturer gives thickness, resistance, areal weight and light reflectance; cp uses generic acoustic tile.
! Source: OpenStudio Prototype Buildings, F16 Acoustic tile; MediumSmooth / thermal.9 / solar.3; reference surface values
! URL: https://github.com/NatLabRockies/OpenStudio-Prototype-Buildings/blob/be99118c3f52f439aa4e0e0a32829101e833f731/create_DOE_prototype_building/resources/OpenStudio_Standards_materials.json
! Source: Armstrong ULTIMA Square Lay-In, data sheet BPCS-4595-925, p.2, High NRC item1940; 1940 selected reference SKU in specified HighNRC24x24family
! URL: https://www.armstrongceilings.com/content/dam/armstrongceilings/commercial/north-america/data-sheets/data-sheet-ultima-square-lay-in.pdf
! Source: Armstrong ULTIMA Square Lay-In, data sheet BPCS-4595-925, p.2, High NRC item1940; Thermal resistance0.39m2K/W
! URL: https://www.armstrongceilings.com/content/dam/armstrongceilings/commercial/north-america/data-sheets/data-sheet-ultima-square-lay-in.pdf
! Source: Armstrong ULTIMA Square Lay-In, data sheet BPCS-4595-925, p.2, High NRC item1940; 1.14lb/ft2 converted tokg/m2 and divided by.022225m
! URL: https://www.armstrongceilings.com/content/dam/armstrongceilings/commercial/north-america/data-sheets/data-sheet-ultima-square-lay-in.pdf
! Source: EnergyPlus v22.2.0 ASHRAE_2005_HOF_Materials.idf, F16 Acoustic tile; Generic cp590; not supplied by Armstrong
! URL: https://github.com/NatLabRockies/EnergyPlus/blob/v22.2.0/datasets/ASHRAE_2005_HOF_Materials.idf
! Source: OpenStudio Prototype Buildings, F16 Acoustic tile; MediumSmooth / thermal.9 / solar.3; reference surface values
! URL: https://github.com/NatLabRockies/OpenStudio-Prototype-Buildings/blob/be99118c3f52f439aa4e0e0a32829101e833f731/create_DOE_prototype_building/resources/OpenStudio_Standards_materials.json
! Source: OpenStudio Prototype Buildings, F16 Acoustic tile; MediumSmooth / thermal.9 / solar.3; reference surface values
! URL: https://github.com/NatLabRockies/OpenStudio-Prototype-Buildings/blob/be99118c3f52f439aa4e0e0a32829101e833f731/create_DOE_prototype_building/resources/OpenStudio_Standards_materials.json
! Source: Armstrong ULTIMA Square Lay-In, data sheet BPCS-4595-925, p.2, High NRC item1940; Opaque tile visible absorptance derived from light reflectance
! URL: https://www.armstrongceilings.com/content/dam/armstrongceilings/commercial/north-america/data-sheets/data-sheet-ultima-square-lay-in.pdf
Material,
    HIBO APC-1 Ultima High NRC 1940 Reference,  !- Name
    MediumSmooth,            !- Roughness
    0.022225,                !- Thickness {m}
    0.0569871794872,         !- Conductivity {W/m-K}
    250.437233092,           !- Density {kg/m3}
    590,                     !- Specific Heat {J/kg-K}
    0.9,                     !- Thermal Absorptance
    0.3,                     !- Solar Absorptance
    0.13;                    !- Visible Absorptance

! Material reference: HIBO Interior Sound Batt Cavity 6in Eq
! Scope: Soundbatttype/thickness, studgaugeandspacing notfirmlyidentified. SA870717 acousticreference is for a different90mmframe/75mmrockfiberassembly. No purebattproperty is valid for the composite as-is.
! Source: Supplied HIBO_Task1_Standard_Ground(1).idf; HIBO Interior Sound Batt Cavity 6in Eq
! Source: UNO-HCIBO-Lab 95% Check Set, 24 Feb 2022, A1.1, S-20; SA.6.20 tag
! Source: Supplied HIBO_Task1_Standard_Ground(1).idf; HIBO Interior Sound Batt Cavity 6in Eq
! Source: Supplied HIBO_Task1_Standard_Ground(1).idf; HIBO Interior Sound Batt Cavity 6in Eq
! Source: Supplied HIBO_Task1_Standard_Ground(1).idf; HIBO Interior Sound Batt Cavity 6in Eq
! Source: Supplied HIBO_Task1_Standard_Ground(1).idf; HIBO Interior Sound Batt Cavity 6in Eq
! Source: Supplied HIBO_Task1_Standard_Ground(1).idf; HIBO Interior Sound Batt Cavity 6in Eq
! Source: Supplied HIBO_Task1_Standard_Ground(1).idf; HIBO Interior Sound Batt Cavity 6in Eq
Material,
    HIBO Interior Sound Batt Cavity 6in Eq,  !- Name
    MediumRough,             !- Roughness
    0.1524,                  !- Thickness {m}
    0.12,                    !- Conductivity {W/m-K}
    40,                      !- Density {kg/m3}
    700,                     !- Specific Heat {J/kg-K}
    0.9,                     !- Thermal Absorptance
    0.5,                     !- Solar Absorptance
    0.5;                     !- Visible Absorptance

! Material reference: HIBO Interior Sound Batt Cavity 8in Eq
! Scope: Same limitationas6in. The drawingroughthickness7-1/4inforboth tags doesnotresolvefull8infilling. Do not imposepuresoundbatt onall8inwithouta declaredhomogenization.
! Source: Supplied HIBO_Task1_Standard_Ground(1).idf; HIBO Interior Sound Batt Cavity 8in Eq
! Source: HIBO A1.1 S-20 partition schedule; 8in modeled fromtag; drawinglists7-1/4inroughthickness forboth tags
! Source: Supplied HIBO_Task1_Standard_Ground(1).idf; HIBO Interior Sound Batt Cavity 8in Eq
! Source: Supplied HIBO_Task1_Standard_Ground(1).idf; HIBO Interior Sound Batt Cavity 8in Eq
! Source: Supplied HIBO_Task1_Standard_Ground(1).idf; HIBO Interior Sound Batt Cavity 8in Eq
! Source: Supplied HIBO_Task1_Standard_Ground(1).idf; HIBO Interior Sound Batt Cavity 8in Eq
! Source: Supplied HIBO_Task1_Standard_Ground(1).idf; HIBO Interior Sound Batt Cavity 8in Eq
! Source: Supplied HIBO_Task1_Standard_Ground(1).idf; HIBO Interior Sound Batt Cavity 8in Eq
Material,
    HIBO Interior Sound Batt Cavity 8in Eq,  !- Name
    MediumRough,             !- Roughness
    0.2032,                  !- Thickness {m}
    0.12,                    !- Conductivity {W/m-K}
    40,                      !- Density {kg/m3}
    700,                     !- Specific Heat {J/kg-K}
    0.9,                     !- Thermal Absorptance
    0.5,                     !- Solar Absorptance
    0.5;                     !- Visible Absorptance

! Material reference: HIBO HM Door Steel Skin Eq
! Scope: The existing 1-mm skin thickness remains a geometric assumption, explicitly stated in the current IDF. Do not silently change it without coordinating the core thickness.
! Scope: Generic metal-sheet proxy; does not establish actual door gauge, steel grade, or paint.
! Source: EnergyPlus v22.2.0 ASHRAE_2005_HOF_Materials.idf; F08 Metal surface, lines 131-137
! URL: https://github.com/NatLabRockies/EnergyPlus/blob/v22.2.0/datasets/ASHRAE_2005_HOF_Materials.idf
! Source: User supplied latest HIBO_Task1_Standard_Ground(1).idf + UNO-HCIBO-Lab 95% Check Set, 23 February 2022, sheet A0.1
! Source: EnergyPlus v22.2.0 ASHRAE_2005_HOF_Materials.idf; F08 Metal surface, lines 131-137
! URL: https://github.com/NatLabRockies/EnergyPlus/blob/v22.2.0/datasets/ASHRAE_2005_HOF_Materials.idf
! Source: EnergyPlus v22.2.0 ASHRAE_2005_HOF_Materials.idf; F08 Metal surface, lines 131-137
! URL: https://github.com/NatLabRockies/EnergyPlus/blob/v22.2.0/datasets/ASHRAE_2005_HOF_Materials.idf
! Source: EnergyPlus v22.2.0 ASHRAE_2005_HOF_Materials.idf; F08 Metal surface, lines 131-137
! URL: https://github.com/NatLabRockies/EnergyPlus/blob/v22.2.0/datasets/ASHRAE_2005_HOF_Materials.idf
! Source: NREL/NatLabRockies OpenStudio Prototype Buildings material library; F08 Metal surface, lines 14590-14603
! URL: https://github.com/NatLabRockies/OpenStudio-Prototype-Buildings/blob/be99118c3f52f439aa4e0e0a32829101e833f731/create_DOE_prototype_building/resources/OpenStudio_Standards_materials.json
! Source: NREL/NatLabRockies OpenStudio Prototype Buildings material library; F08 Metal surface, lines 14590-14603
! URL: https://github.com/NatLabRockies/OpenStudio-Prototype-Buildings/blob/be99118c3f52f439aa4e0e0a32829101e833f731/create_DOE_prototype_building/resources/OpenStudio_Standards_materials.json
! Source: NREL/NatLabRockies OpenStudio Prototype Buildings material library; F08 Metal surface, lines 14590-14603
! URL: https://github.com/NatLabRockies/OpenStudio-Prototype-Buildings/blob/be99118c3f52f439aa4e0e0a32829101e833f731/create_DOE_prototype_building/resources/OpenStudio_Standards_materials.json
Material,
    HIBO HM Door Steel Skin Eq,  !- Name
    Smooth,                  !- Roughness
    0.001,                   !- Thickness {m}
    45.28,                   !- Conductivity {W/m-K}
    7824,                    !- Density {kg/m3}
    500,                     !- Specific Heat {J/kg-K}
    0.9,                     !- Thermal Absorptance
    0.7,                     !- Solar Absorptance
    0.7;                     !- Visible Absorptance

! Material reference: HIBO HM Door Core Eq
! Scope: Hollow-metal manufacturername/Level3cannot identifycore. ExactmanufacturerassemblyUdoesnotuniquelydeterminecorekandincludesassembly/film/edgeeffects. Keepunknowncoreexplicit ratherthanarbitrarilyselectinsulation. Ifskin t changes,coret=.04445−2*skin_t.
! Source: Supplied HIBO_Task1_Standard_Ground(1).idf; HIBO HM Door Core Eq
! Source: HIBO A1.2 door schedule plus supplied IDF skin thickness; 44.45−2×1=42.45mm
! Source: Supplied HIBO_Task1_Standard_Ground(1).idf; HIBO HM Door Core Eq
! Source: Supplied HIBO_Task1_Standard_Ground(1).idf; HIBO HM Door Core Eq
! Source: Supplied HIBO_Task1_Standard_Ground(1).idf; HIBO HM Door Core Eq
! Source: Supplied HIBO_Task1_Standard_Ground(1).idf; HIBO HM Door Core Eq
! Source: Supplied HIBO_Task1_Standard_Ground(1).idf; HIBO HM Door Core Eq
! Source: Supplied HIBO_Task1_Standard_Ground(1).idf; HIBO HM Door Core Eq
Material,
    HIBO HM Door Core Eq,    !- Name
    Smooth,                  !- Roughness
    0.04245,                 !- Thickness {m}
    0.12,                    !- Conductivity {W/m-K}
    80,                      !- Density {kg/m3}
    1000,                    !- Specific Heat {J/kg-K}
    0.9,                     !- Thermal Absorptance
    0.5,                     !- Solar Absorptance
    0.5;                     !- Visible Absorptance

! Material reference: HIBO Hollow Metal Frame Eq
! Scope: A1.2 says mineralwool-filledframe. cp500is a steel-dominatedreference, notexactcompositecp. Whole-sectionG/rhoneedsprofileandfillfractions. Do notusebulksteelk45.28/rho7824forwholeframe.
! Source: Supplied HIBO_Task1_Standard_Ground(1).idf; HIBO Hollow Metal Frame Eq
! Source: Supplied IDF, Hollow Metal Frame Eq
! Source: Supplied HIBO_Task1_Standard_Ground(1).idf; HIBO Hollow Metal Frame Eq
! Source: Supplied HIBO_Task1_Standard_Ground(1).idf; HIBO Hollow Metal Frame Eq
! Source: EnergyPlus v22.2.0 ASHRAE_2005_HOF_Materials.idf, F08 Metal surface; Steel-dominated framecp only; not conductivity/density of hollowsection
! URL: https://github.com/NatLabRockies/EnergyPlus/blob/v22.2.0/datasets/ASHRAE_2005_HOF_Materials.idf
! Source: Supplied HIBO_Task1_Standard_Ground(1).idf; HIBO Hollow Metal Frame Eq
! Source: Supplied HIBO_Task1_Standard_Ground(1).idf; HIBO Hollow Metal Frame Eq
! Source: Supplied HIBO_Task1_Standard_Ground(1).idf; HIBO Hollow Metal Frame Eq
Material,
    HIBO Hollow Metal Frame Eq,  !- Name
    Smooth,                  !- Roughness
    0.04445,                 !- Thickness {m}
    0.22225,                 !- Conductivity {W/m-K}
    250,                     !- Density {kg/m3}
    500,                     !- Specific Heat {J/kg-K}
    0.9,                     !- Thermal Absorptance
    0.4,                     !- Solar Absorptance
    0.4;                     !- Visible Absorptance

! Material reference: HIBO Exterior Aluminum Frame Strip Eq
! Scope: cp900matchesroundedbulkaluminum25C. FrameG/rhorequire601Tactualprofilecalculationorframe-specifictests. WholewindowUcannotbeused asframeG.
! Source: Supplied HIBO_Task1_Standard_Ground(1).idf; HIBO Exterior Aluminum Frame Strip Eq
! Source: UNO-HCIBO-Lab 95% Check Set, 24 Feb 2022, A0.1 §084113; Kawneer 601T, nominal 2 × 6 in
! Source: Supplied HIBO_Task1_Standard_Ground(1).idf; HIBO Exterior Aluminum Frame Strip Eq
! Source: Supplied HIBO_Task1_Standard_Ground(1).idf; HIBO Exterior Aluminum Frame Strip Eq
! Source: NIST Chemistry WebBook SRD69, Aluminum solid, Chase1998, Shomate at298.15K; Bulk aluminumcp reference only; frame density/k remaineffective
! URL: https://webbook.nist.gov/cgi/cbook.cgi?ID=C7429905&Mask=2
! Source: Supplied HIBO_Task1_Standard_Ground(1).idf; HIBO Exterior Aluminum Frame Strip Eq
! Source: Supplied HIBO_Task1_Standard_Ground(1).idf; HIBO Exterior Aluminum Frame Strip Eq
! Source: Supplied HIBO_Task1_Standard_Ground(1).idf; HIBO Exterior Aluminum Frame Strip Eq
Material,
    HIBO Exterior Aluminum Frame Strip Eq,  !- Name
    Smooth,                  !- Roughness
    0.1524,                  !- Thickness {m}
    0.762,                   !- Conductivity {W/m-K}
    120,                     !- Density {kg/m3}
    900,                     !- Specific Heat {J/kg-K}
    0.9,                     !- Thermal Absorptance
    0.4,                     !- Solar Absorptance
    0.4;                     !- Visible Absorptance

! Material reference: HIBO Internal Mass Half Cavity SA6 Eq
! Scope: Halfthickness preservesmass whenexposedareaisdoubled. Anyfull6inlayerproperty change mustpropagateherewithsamek/rho/cp andhalfthickness.
! Source: Supplied HIBO_Task1_Standard_Ground(1).idf; HIBO Internal Mass Half Cavity SA6 Eq
! Source: HIBO Interior Sound Batt Cavity 6in Eq, half thickness
! Source: Supplied HIBO_Task1_Standard_Ground(1).idf; HIBO Internal Mass Half Cavity SA6 Eq
! Source: Supplied HIBO_Task1_Standard_Ground(1).idf; HIBO Internal Mass Half Cavity SA6 Eq
! Source: Supplied HIBO_Task1_Standard_Ground(1).idf; HIBO Internal Mass Half Cavity SA6 Eq
! Source: Supplied HIBO_Task1_Standard_Ground(1).idf; HIBO Internal Mass Half Cavity SA6 Eq
! Source: Supplied HIBO_Task1_Standard_Ground(1).idf; HIBO Internal Mass Half Cavity SA6 Eq
! Source: Supplied HIBO_Task1_Standard_Ground(1).idf; HIBO Internal Mass Half Cavity SA6 Eq
Material,
    HIBO Internal Mass Half Cavity SA6 Eq,  !- Name
    Smooth,                  !- Roughness
    0.0762,                  !- Thickness {m}
    0.12,                    !- Conductivity {W/m-K}
    40,                      !- Density {kg/m3}
    700,                     !- Specific Heat {J/kg-K}
    0.9,                     !- Thermal Absorptance
    0.5,                     !- Solar Absorptance
    0.5;                     !- Visible Absorptance

! Material reference: HIBO Internal Mass Half HM Core
! Scope: Mustkeepfullcorek/rho/cpandhalffullcorethickness. Two-facedarea preservesdoor mass.
! Source: Supplied HIBO_Task1_Standard_Ground(1).idf; HIBO Internal Mass Half HM Core
! Source: HIBO HM Door Core Eq, same material, half thickness
! Source: Supplied HIBO_Task1_Standard_Ground(1).idf; HIBO Internal Mass Half HM Core
! Source: Supplied HIBO_Task1_Standard_Ground(1).idf; HIBO Internal Mass Half HM Core
! Source: Supplied HIBO_Task1_Standard_Ground(1).idf; HIBO Internal Mass Half HM Core
! Source: Supplied HIBO_Task1_Standard_Ground(1).idf; HIBO Internal Mass Half HM Core
! Source: Supplied HIBO_Task1_Standard_Ground(1).idf; HIBO Internal Mass Half HM Core
! Source: Supplied HIBO_Task1_Standard_Ground(1).idf; HIBO Internal Mass Half HM Core
Material,
    HIBO Internal Mass Half HM Core,  !- Name
    Smooth,                  !- Roughness
    0.021225,                !- Thickness {m}
    0.12,                    !- Conductivity {W/m-K}
    80,                      !- Density {kg/m3}
    1000,                    !- Specific Heat {J/kg-K}
    0.9,                     !- Thermal Absorptance
    0.5,                     !- Solar Absorptance
    0.5;                     !- Visible Absorptance

! Material reference: HIBO ITSG Opaque Panel 1in Eq
! Scope: F09is6.4mmglasspaneonly, not1inIGU. Cannotassignglassrho2528tofullassembly. Two6.35mmglasspaneswouldyieldrho1264cp880butthatmakeupisnotdocumented; not selected. Keepunsupportedassemblyproperties explicit.
! Source: Supplied HIBO_Task1_Standard_Ground(1).idf; HIBO ITSG Opaque Panel 1in Eq
! Source: UNO-HCIBO-Lab 95% Check Set, 24 Feb 2022, A0.1 §088000; 1 in insulated spandrel
! Source: Supplied HIBO_Task1_Standard_Ground(1).idf; HIBO ITSG Opaque Panel 1in Eq
! Source: Supplied HIBO_Task1_Standard_Ground(1).idf; HIBO ITSG Opaque Panel 1in Eq
! Source: Supplied HIBO_Task1_Standard_Ground(1).idf; HIBO ITSG Opaque Panel 1in Eq
! Source: Supplied HIBO_Task1_Standard_Ground(1).idf; HIBO ITSG Opaque Panel 1in Eq
! Source: Supplied HIBO_Task1_Standard_Ground(1).idf; HIBO ITSG Opaque Panel 1in Eq
! Source: Supplied HIBO_Task1_Standard_Ground(1).idf; HIBO ITSG Opaque Panel 1in Eq
Material,
    HIBO ITSG Opaque Panel 1in Eq,  !- Name
    Smooth,                  !- Roughness
    0.0254,                  !- Thickness {m}
    0.0607313642757,         !- Conductivity {W/m-K}
    400,                     !- Density {kg/m3}
    840,                     !- Specific Heat {J/kg-K}
    0.84,                    !- Thermal Absorptance
    0.6,                     !- Solar Absorptance
    0.6;                     !- Visible Absorptance

! Material reference: HIBO Carpet Tile CPT-1 Eq
! Scope: Product-specific nominal thickness; generic carpet thermal tuple. Derived areal mass1.50kg/m2 lies within manufacturer nominal4.5–5.2oz/ft2 range.
! Source: EnergyPlus v22.2.0 ASHRAE_2005_HOF_Materials.idf, F17 Carpet; Generic carpet roughness category
! URL: https://github.com/NatLabRockies/EnergyPlus/blob/v22.2.0/datasets/ASHRAE_2005_HOF_Materials.idf
! Source: J+J Flooring, Kinetex Against the Grain Demi-Plank 1840, Product Specs; A1.1 finish schedule identifies1840; 0.205in=5.207mm
! URL: https://www.jjflooringgroup.com/product/against-the-grain-demi-plank/
! Source: EnergyPlus v22.2.0 ASHRAE_2005_HOF_Materials.idf, F17 Carpet; Generic carpet reference .06/288/1380; reference t.0127m adapted to5.207mm
! URL: https://github.com/NatLabRockies/EnergyPlus/blob/v22.2.0/datasets/ASHRAE_2005_HOF_Materials.idf
! Source: EnergyPlus v22.2.0 ASHRAE_2005_HOF_Materials.idf, F17 Carpet; Generic carpet reference .06/288/1380; reference t.0127m adapted to5.207mm
! URL: https://github.com/NatLabRockies/EnergyPlus/blob/v22.2.0/datasets/ASHRAE_2005_HOF_Materials.idf
! Source: EnergyPlus v22.2.0 ASHRAE_2005_HOF_Materials.idf, F17 Carpet; Generic carpet reference .06/288/1380; reference t.0127m adapted to5.207mm
! URL: https://github.com/NatLabRockies/EnergyPlus/blob/v22.2.0/datasets/ASHRAE_2005_HOF_Materials.idf
! Source: EnergyPlus v22.2.0 Input Output Reference, Material defaults; Documented defaults .9/.7/.7; not measured Kinetex surface properties
! URL: https://github.com/NatLabRockies/EnergyPlus/blob/v22.2.0/doc/input-output-reference/src/overview/group-surface-construction-elements.tex#L87-L97
! Source: EnergyPlus v22.2.0 Input Output Reference, Material defaults; Documented defaults .9/.7/.7; not measured Kinetex surface properties
! URL: https://github.com/NatLabRockies/EnergyPlus/blob/v22.2.0/doc/input-output-reference/src/overview/group-surface-construction-elements.tex#L87-L97
! Source: EnergyPlus v22.2.0 Input Output Reference, Material defaults; Documented defaults .9/.7/.7; not measured Kinetex surface properties
! URL: https://github.com/NatLabRockies/EnergyPlus/blob/v22.2.0/doc/input-output-reference/src/overview/group-surface-construction-elements.tex#L87-L97
Material,
    HIBO Carpet Tile CPT-1 Eq,  !- Name
    MediumRough,             !- Roughness
    0.005207,                !- Thickness {m}
    0.06,                    !- Conductivity {W/m-K}
    288,                     !- Density {kg/m3}
    1380,                    !- Specific Heat {J/kg-K}
    0.9,                     !- Thermal Absorptance
    0.7,                     !- Solar Absorptance
    0.7;                     !- Visible Absorptance


!-   ===========  ALL OBJECTS IN CLASS: MATERIAL:NOMASS ===========

! Source: Supplied HIBO_Task1_Standard_Ground(1).idf, HIBO Air Barrier Eq
Material:NoMass,
    HIBO Air Barrier Eq,     !- Name
    MediumSmooth,            !- Roughness
    0.001,                   !- Thermal Resistance {m2-K/W}
    0.90,                    !- Thermal Absorptance
    0.50,                    !- Solar Absorptance
    0.50;                    !- Visible Absorptance

! Source: Supplied HIBO_Task1_Standard_Ground(1).idf, HIBO Roof Vapor Retarder Eq
Material:NoMass,
    HIBO Roof Vapor Retarder Eq,  !- Name
    Smooth,                  !- Roughness
    0.0010,                  !- Thermal Resistance {m2-K/W}
    0.90,                    !- Thermal Absorptance
    0.50,                    !- Solar Absorptance
    0.50;                    !- Visible Absorptance


!-   ===========  ALL OBJECTS IN CLASS: MATERIAL:AIRGAP ===========

! Source: EnergyPlus v22.2.0, ASHRAE_2005_HOF_Materials.idf, Material:AirGap F04 Wall air space resistance
! URL: https://github.com/NatLabRockies/EnergyPlus/blob/v22.2.0/datasets/ASHRAE_2005_HOF_Materials.idf#L475-L477
Material:AirGap,
    HIBO Exterior Drainage Cavity,  !- Name
    0.15;                    !- Thermal Resistance {m2-K/W}


!-   ===========  ALL OBJECTS IN CLASS: WINDOWMATERIAL:SIMPLEGLAZINGSYSTEM ===========

WindowMaterial:SimpleGlazingSystem,
    SN54_1in_IGU,            !- Name
    1.36,                    !- U-Factor {W/m2-K}
    0.28,                    !- Solar Heat Gain Coefficient
    0.54;                    !- Visible Transmittance


!-   ===========  ALL OBJECTS IN CLASS: WINDOWMATERIAL:GLAZING ===========

WindowMaterial:Glazing,
    HIBO Interior CTG 1-4in, !- Name
    SpectralAverage,         !- Optical Data Type
    ,                        !- Window Glass Spectral Data Set Name
    0.00635,                 !- Thickness {m}
    0.775,                   !- Solar Transmittance at Normal Incidence
    0.071,                   !- Front Side Solar Reflectance at Normal Incidence
    0.071,                   !- Back Side Solar Reflectance at Normal Incidence
    0.881,                   !- Visible Transmittance at Normal Incidence
    0.08,                    !- Front Side Visible Reflectance at Normal Incidence
    0.08,                    !- Back Side Visible Reflectance at Normal Incidence
    0,                       !- Infrared Transmittance at Normal Incidence
    0.84,                    !- Front Side Infrared Hemispherical Emissivity
    0.84,                    !- Back Side Infrared Hemispherical Emissivity
    0.9,                     !- Conductivity {W/m-K}
    1,                       !- Dirt Correction Factor for Solar and Visible Transmittance
    No;                      !- Solar Diffusing


!-   ===========  ALL OBJECTS IN CLASS: CONSTRUCTION ===========

Construction,
    EXT_Window_SN54,         !- Name
    SN54_1in_IGU;            !- Outside Layer

Construction,
    HIBO Metal Panel Exterior Wall,  !- Name
    HIBO Metal Wall Panel 24ga Eq,  !- Outside Layer
    HIBO Thermax CI R7.5 Eq, !- Layer 2
    HIBO Air Barrier Eq,     !- Layer 3
    HIBO Exterior Gypsum Sheathing 5-8in,  !- Layer 4
    HIBO CFS Batt R13 6in Effective,  !- Layer 5
    HIBO Gypsum Board Type X 5-8in;  !- Layer 6

Construction,
    HIBO CMU Veneer Exterior Wall,  !- Name
    HIBO Burnished CMU Veneer 4in Eq,  !- Outside Layer
    HIBO Exterior Drainage Cavity,  !- Layer 2
    HIBO Thermax CI R7.5 Eq, !- Layer 3
    HIBO Air Barrier Eq,     !- Layer 4
    HIBO Exterior Gypsum Sheathing 5-8in,  !- Layer 5
    HIBO CFS Batt R13 6in Effective,  !- Layer 6
    HIBO Gypsum Board Type X 5-8in;  !- Layer 7

Construction,
    HIBO EPDM Insulated Roof,!- Name
    HIBO EPDM Membrane 45mil,!- Outside Layer
    HIBO Roof Polyiso 4in R30 Eq,  !- Layer 2
    HIBO Roof Vapor Retarder Eq,  !- Layer 3
    HIBO Metal Roof Deck Eq; !- Layer 4

Construction,
    HIBO Slab Carpet,        !- Name
    HIBO Granular Fill 4in Eq,  !- Outside Layer
    HIBO Concrete Slab 4in,  !- Layer 2
    HIBO Carpet Tile CPT-1 Eq;  !- Layer 3

Construction,
    HIBO Slab Sealed Concrete,  !- Name
    HIBO Granular Fill 4in Eq,  !- Outside Layer
    HIBO Concrete Slab 4in;  !- Layer 2

Construction,
    HIBO APC-1 Ceiling,      !- Name
    HIBO APC-1 Ultima High NRC 1940 Reference;  !- Outside Layer

Construction,
    HIBO GYP Ceiling,        !- Name
    HIBO Gypsum Board Type X 5-8in;  !- Outside Layer

Construction,
    HIBO Interior Partition SA.6.20,  !- Name
    HIBO Gypsum Board Type X 5-8in,  !- Outside Layer
    HIBO Interior Sound Batt Cavity 6in Eq,  !- Layer 2
    HIBO Gypsum Board Type X 5-8in;  !- Layer 3

Construction,
    HIBO Interior Partition SA.8.21,  !- Name
    HIBO Gypsum Board Type X 5-8in,  !- Outside Layer
    HIBO Interior Sound Batt Cavity 8in Eq,  !- Layer 2
    HIBO Gypsum Board Type X 5-8in;  !- Layer 3

Construction,
    HIBO Interior CTG,       !- Name
    HIBO Interior CTG 1-4in; !- Outside Layer

Construction,
    HIBO HM Door 1-3-4in,    !- Name
    HIBO HM Door Steel Skin Eq,  !- Outside Layer
    HIBO HM Door Core Eq,    !- Layer 2
    HIBO HM Door Steel Skin Eq;  !- Layer 3

Construction,
    HIBO Metal Frame Strip,  !- Name
    HIBO Hollow Metal Frame Eq;  !- Outside Layer

Construction,
    HIBO Exterior Aluminum Frame Strip,  !- Name
    HIBO Exterior Aluminum Frame Strip Eq;  !- Outside Layer

Construction,
    HIBO Internal Mass Half SA6,  !- Name
    HIBO Internal Mass Half Cavity SA6 Eq,  !- Outside Layer
    HIBO Gypsum Board Type X 5-8in;  !- Layer 2

Construction,
    HIBO Internal Mass Half HM Door,  !- Name
    HIBO Internal Mass Half HM Core,  !- Outside Layer
    HIBO HM Door Steel Skin Eq;  !- Layer 2

Construction,
    HIBO ITSG Opaque Panel,  !- Name
    HIBO ITSG Opaque Panel 1in Eq;  !- Outside Layer


!-   ===========  ALL OBJECTS IN CLASS: GLOBALGEOMETRYRULES ===========

GlobalGeometryRules,
    UpperLeftCorner,         !- Starting Vertex Position
    Counterclockwise,        !- Vertex Entry Direction
    Relative,                !- Coordinate System
    Relative,                !- Daylighting Reference Point Coordinate System
    Relative;                !- Rectangular Surface Coordinate System


!-   ===========  ALL OBJECTS IN CLASS: ZONE ===========

Zone,
    MEP,                     !- Name
    -0,                      !- Direction of Relative North {deg}
    0,                       !- X Origin {m}
    0,                       !- Y Origin {m}
    0,                       !- Z Origin {m}
    ,                        !- Type
    1,                       !- Multiplier
    ,                        !- Ceiling Height {m}
    ,                        !- Volume {m3}
    ,                        !- Floor Area {m2}
    ,                        !- Zone Inside Convection Algorithm
    ,                        !- Zone Outside Convection Algorithm
    Yes;                     !- Part of Total Floor Area

Zone,
    Thermal Zone: Plenum,    !- Name
    -0,                      !- Direction of Relative North {deg}
    0,                       !- X Origin {m}
    0,                       !- Y Origin {m}
    0,                       !- Z Origin {m}
    ,                        !- Type
    1,                       !- Multiplier
    ,                        !- Ceiling Height {m}
    ,                        !- Volume {m3}
    ,                        !- Floor Area {m2}
    ,                        !- Zone Inside Convection Algorithm
    ,                        !- Zone Outside Convection Algorithm
    No;                      !- Part of Total Floor Area

Zone,
    Thermal Zone: Space 103 LAB B, !- Name
    -0,                      !- Direction of Relative North {deg}
    0,                       !- X Origin {m}
    0,                       !- Y Origin {m}
    0,                       !- Z Origin {m}
    ,                        !- Type
    1,                       !- Multiplier
    ,                        !- Ceiling Height {m}
    ,                        !- Volume {m3}
    ,                        !- Floor Area {m2}
    ,                        !- Zone Inside Convection Algorithm
    ,                        !- Zone Outside Convection Algorithm
    Yes;                     !- Part of Total Floor Area

Zone,
    Thermal Zone: Space 102 - Plus,  !- Name
    -0,                      !- Direction of Relative North {deg}
    0,                       !- X Origin {m}
    0,                       !- Y Origin {m}
    0,                       !- Z Origin {m}
    ,                        !- Type
    1,                       !- Multiplier
    ,                        !- Ceiling Height {m}
    ,                        !- Volume {m3}
    ,                        !- Floor Area {m2}
    ,                        !- Zone Inside Convection Algorithm
    ,                        !- Zone Outside Convection Algorithm
    Yes;                     !- Part of Total Floor Area

Zone,
    Thermal Zone: Space 105 LAB A, !- Name
    -0,                      !- Direction of Relative North {deg}
    0,                       !- X Origin {m}
    0,                       !- Y Origin {m}
    0,                       !- Z Origin {m}
    ,                        !- Type
    1,                       !- Multiplier
    ,                        !- Ceiling Height {m}
    ,                        !- Volume {m3}
    ,                        !- Floor Area {m2}
    ,                        !- Zone Inside Convection Algorithm
    ,                        !- Zone Outside Convection Algorithm
    Yes;                     !- Part of Total Floor Area


!-   ===========  ALL OBJECTS IN CLASS: BUILDINGSURFACE:DETAILED ===========

BuildingSurface:Detailed,
    Surface 40,              !- Name
    Floor,                   !- Surface Type
    HIBO Slab Sealed Concrete,  !- Construction Name
    MEP,                     !- Zone Name
    ,                        !- Space Name
    Ground,                  !- Outside Boundary Condition
    ,                        !- Outside Boundary Condition Object
    NoSun,                   !- Sun Exposure
    NoWind,                  !- Wind Exposure
    ,                        !- View Factor to Ground
    ,                        !- Number of Vertices
    9.171432,                !- Vertex 1 X-coordinate {m}
    6.912864,                !- Vertex 1 Y-coordinate {m}
    0,                       !- Vertex 1 Z-coordinate {m}
    9.171432,                !- Vertex 2 X-coordinate {m}
    4.654296,                !- Vertex 2 Y-coordinate {m}
    0,                       !- Vertex 2 Z-coordinate {m}
    6.312408,                !- Vertex 3 X-coordinate {m}
    4.654296,                !- Vertex 3 Y-coordinate {m}
    0,                       !- Vertex 3 Z-coordinate {m}
    6.312408,                !- Vertex 4 X-coordinate {m}
    6.912864,                !- Vertex 4 Y-coordinate {m}
    0;                       !- Vertex 4 Z-coordinate {m}

BuildingSurface:Detailed,
    Surface 41 Ext,          !- Name
    Wall,                    !- Surface Type
    HIBO CMU Veneer Exterior Wall,  !- Construction Name
    MEP,                     !- Zone Name
    ,                        !- Space Name
    Outdoors,                !- Outside Boundary Condition
    ,                        !- Outside Boundary Condition Object
    SunExposed,              !- Sun Exposure
    WindExposed,             !- Wind Exposure
    ,                        !- View Factor to Ground
    4,                       !- Number of Vertices
    9.171432,                !- Vertex 1 X-coordinate {m}
    6.912864,                !- Vertex 1 Y-coordinate {m}
    3.048000,                !- Vertex 1 Z-coordinate {m}
    9.171432,                !- Vertex 2 X-coordinate {m}
    6.912864,                !- Vertex 2 Y-coordinate {m}
    0.000000,                !- Vertex 2 Z-coordinate {m}
    6.312408,                !- Vertex 3 X-coordinate {m}
    6.912864,                !- Vertex 3 Y-coordinate {m}
    0.000000,                !- Vertex 3 Z-coordinate {m}
    6.312408,                !- Vertex 4 X-coordinate {m}
    6.912864,                !- Vertex 4 Y-coordinate {m}
    3.048000;                !- Vertex 4 Z-coordinate {m}

BuildingSurface:Detailed,
    Surface 42 Ext,          !- Name
    Wall,                    !- Surface Type
    HIBO CMU Veneer Exterior Wall,  !- Construction Name
    MEP,                     !- Zone Name
    ,                        !- Space Name
    Outdoors,                !- Outside Boundary Condition
    ,                        !- Outside Boundary Condition Object
    SunExposed,              !- Sun Exposure
    WindExposed,             !- Wind Exposure
    ,                        !- View Factor to Ground
    4,                       !- Number of Vertices
    9.171432,                !- Vertex 1 X-coordinate {m}
    4.654296,                !- Vertex 1 Y-coordinate {m}
    3.048000,                !- Vertex 1 Z-coordinate {m}
    9.171432,                !- Vertex 2 X-coordinate {m}
    4.654296,                !- Vertex 2 Y-coordinate {m}
    0.000000,                !- Vertex 2 Z-coordinate {m}
    9.171432,                !- Vertex 3 X-coordinate {m}
    6.912864,                !- Vertex 3 Y-coordinate {m}
    0.000000,                !- Vertex 3 Z-coordinate {m}
    9.171432,                !- Vertex 4 X-coordinate {m}
    6.912864,                !- Vertex 4 Y-coordinate {m}
    3.048000;                !- Vertex 4 Z-coordinate {m}

BuildingSurface:Detailed,
    Surface 43,              !- Name
    Wall,                    !- Surface Type
    HIBO Interior Partition SA.8.21,  !- Construction Name
    MEP,                     !- Zone Name
    ,                        !- Space Name
    Surface,                 !- Outside Boundary Condition
    Surface 16,              !- Outside Boundary Condition Object
    NoSun,                   !- Sun Exposure
    NoWind,                  !- Wind Exposure
    ,                        !- View Factor to Ground
    4,                       !- Number of Vertices
    7.04392800,              !- Vertex 1 X-coordinate {m}
    4.65429600,              !- Vertex 1 Y-coordinate {m}
    3.04800000,              !- Vertex 1 Z-coordinate {m}
    7.04392800,              !- Vertex 2 X-coordinate {m}
    4.65429600,              !- Vertex 2 Y-coordinate {m}
    0.00000000,              !- Vertex 2 Z-coordinate {m}
    9.17143200,              !- Vertex 3 X-coordinate {m}
    4.65429600,              !- Vertex 3 Y-coordinate {m}
    0.00000000,              !- Vertex 3 Z-coordinate {m}
    9.17143200,              !- Vertex 4 X-coordinate {m}
    4.65429600,              !- Vertex 4 Y-coordinate {m}
    3.04800000;              !- Vertex 4 Z-coordinate {m}

BuildingSurface:Detailed,
    Surface 44,              !- Name
    Wall,                    !- Surface Type
    HIBO Interior Partition SA.8.21,  !- Construction Name
    MEP,                     !- Zone Name
    ,                        !- Space Name
    Surface,                 !- Outside Boundary Condition
    Surface 26,              !- Outside Boundary Condition Object
    NoSun,                   !- Sun Exposure
    NoWind,                  !- Wind Exposure
    ,                        !- View Factor to Ground
    4,                       !- Number of Vertices
    6.31240800,              !- Vertex 1 X-coordinate {m}
    4.65429600,              !- Vertex 1 Y-coordinate {m}
    3.04800000,              !- Vertex 1 Z-coordinate {m}
    6.31240800,              !- Vertex 2 X-coordinate {m}
    4.65429600,              !- Vertex 2 Y-coordinate {m}
    0.00000000,              !- Vertex 2 Z-coordinate {m}
    7.04392800,              !- Vertex 3 X-coordinate {m}
    4.65429600,              !- Vertex 3 Y-coordinate {m}
    0.00000000,              !- Vertex 3 Z-coordinate {m}
    7.04392800,              !- Vertex 4 X-coordinate {m}
    4.65429600,              !- Vertex 4 Y-coordinate {m}
    3.04800000;              !- Vertex 4 Z-coordinate {m}

BuildingSurface:Detailed,
    Surface 45,              !- Name
    Wall,                    !- Surface Type
    HIBO Interior Partition SA.6.20,  !- Construction Name
    MEP,                     !- Zone Name
    ,                        !- Space Name
    Surface,                 !- Outside Boundary Condition
    Surface 25,              !- Outside Boundary Condition Object
    NoSun,                   !- Sun Exposure
    NoWind,                  !- Wind Exposure
    ,                        !- View Factor to Ground
    4,                       !- Number of Vertices
    6.312408,                !- Vertex 1 X-coordinate {m}
    6.912864,                !- Vertex 1 Y-coordinate {m}
    3.048000,                !- Vertex 1 Z-coordinate {m}
    6.312408,                !- Vertex 2 X-coordinate {m}
    6.912864,                !- Vertex 2 Y-coordinate {m}
    0.000000,                !- Vertex 2 Z-coordinate {m}
    6.312408,                !- Vertex 3 X-coordinate {m}
    4.654296,                !- Vertex 3 Y-coordinate {m}
    0.000000,                !- Vertex 3 Z-coordinate {m}
    6.312408,                !- Vertex 4 X-coordinate {m}
    4.654296,                !- Vertex 4 Y-coordinate {m}
    3.048000;                !- Vertex 4 Z-coordinate {m}

BuildingSurface:Detailed,
    Surface 46,              !- Name
    Ceiling,                 !- Surface Type
    HIBO APC-1 Ceiling,      !- Construction Name
    MEP,                     !- Zone Name
    ,                        !- Space Name
    Surface,                 !- Outside Boundary Condition
    Surface 61,              !- Outside Boundary Condition Object
    NoSun,                   !- Sun Exposure
    NoWind,                  !- Wind Exposure
    ,                        !- View Factor to Ground
    4,                       !- Number of Vertices
    9.171432,                !- Vertex 1 X-coordinate {m}
    4.654296,                !- Vertex 1 Y-coordinate {m}
    3.048000,                !- Vertex 1 Z-coordinate {m}
    9.171432,                !- Vertex 2 X-coordinate {m}
    6.912864,                !- Vertex 2 Y-coordinate {m}
    3.048000,                !- Vertex 2 Z-coordinate {m}
    6.312408,                !- Vertex 3 X-coordinate {m}
    6.912864,                !- Vertex 3 Y-coordinate {m}
    3.048000,                !- Vertex 3 Z-coordinate {m}
    6.312408,                !- Vertex 4 X-coordinate {m}
    4.654296,                !- Vertex 4 Y-coordinate {m}
    3.048000;                !- Vertex 4 Z-coordinate {m}

BuildingSurface:Detailed,
    Surface 47,              !- Name
    Floor,                   !- Surface Type
    HIBO APC-1 Ceiling,      !- Construction Name
    Thermal Zone: Plenum,    !- Zone Name
    ,                        !- Space Name
    Surface,                 !- Outside Boundary Condition
    Surface 22,              !- Outside Boundary Condition Object
    NoSun,                   !- Sun Exposure
    NoWind,                  !- Wind Exposure
    ,                        !- View Factor to Ground
    4,                       !- Number of Vertices
    11.000232,               !- Vertex 1 X-coordinate {m}
    4.654296,                !- Vertex 1 Y-coordinate {m}
    3.048000,                !- Vertex 1 Z-coordinate {m}
    11.000232,               !- Vertex 2 X-coordinate {m}
    0.000000,                !- Vertex 2 Y-coordinate {m}
    3.048000,                !- Vertex 2 Z-coordinate {m}
    7.043928,                !- Vertex 3 X-coordinate {m}
    0.000000,                !- Vertex 3 Y-coordinate {m}
    3.048000,                !- Vertex 3 Z-coordinate {m}
    7.043928,                !- Vertex 4 X-coordinate {m}
    4.654296,                !- Vertex 4 Y-coordinate {m}
    3.048000;                !- Vertex 4 Z-coordinate {m}

BuildingSurface:Detailed,
    Surface 48,              !- Name
    Wall,                    !- Surface Type
    HIBO Metal Panel Exterior Wall,  !- Construction Name
    Thermal Zone: Plenum,    !- Zone Name
    ,                        !- Space Name
    Outdoors,                !- Outside Boundary Condition
    ,                        !- Outside Boundary Condition Object
    SunExposed,              !- Sun Exposure
    WindExposed,             !- Wind Exposure
    ,                        !- View Factor to Ground
    4,                       !- Number of Vertices
    0.000000,                !- Vertex 1 X-coordinate {m}
    4.654296,                !- Vertex 1 Y-coordinate {m}
    4.521200,                !- Vertex 1 Z-coordinate {m}
    0.000000,                !- Vertex 2 X-coordinate {m}
    4.654296,                !- Vertex 2 Y-coordinate {m}
    3.048000,                !- Vertex 2 Z-coordinate {m}
    0.000000,                !- Vertex 3 X-coordinate {m}
    0.000000,                !- Vertex 3 Y-coordinate {m}
    3.048000,                !- Vertex 3 Z-coordinate {m}
    0.000000,                !- Vertex 4 X-coordinate {m}
    0.000000,                !- Vertex 4 Y-coordinate {m}
    4.724400;                !- Vertex 4 Z-coordinate {m}

BuildingSurface:Detailed,
    Surface 49,              !- Name
    Wall,                    !- Surface Type
    HIBO Metal Panel Exterior Wall,  !- Construction Name
    Thermal Zone: Plenum,    !- Zone Name
    ,                        !- Space Name
    Outdoors,                !- Outside Boundary Condition
    ,                        !- Outside Boundary Condition Object
    SunExposed,              !- Sun Exposure
    WindExposed,             !- Wind Exposure
    ,                        !- View Factor to Ground
    4,                       !- Number of Vertices
    1.828800,                !- Vertex 1 X-coordinate {m}
    4.654296,                !- Vertex 1 Y-coordinate {m}
    4.521200,                !- Vertex 1 Z-coordinate {m}
    1.828800,                !- Vertex 2 X-coordinate {m}
    4.654296,                !- Vertex 2 Y-coordinate {m}
    3.048000,                !- Vertex 2 Z-coordinate {m}
    0.000000,                !- Vertex 3 X-coordinate {m}
    4.654296,                !- Vertex 3 Y-coordinate {m}
    3.048000,                !- Vertex 3 Z-coordinate {m}
    0.000000,                !- Vertex 4 X-coordinate {m}
    4.654296,                !- Vertex 4 Y-coordinate {m}
    4.521200;                !- Vertex 4 Z-coordinate {m}

BuildingSurface:Detailed,
    Surface 50,              !- Name
    Wall,                    !- Surface Type
    HIBO CMU Veneer Exterior Wall,  !- Construction Name
    Thermal Zone: Plenum,    !- Zone Name
    ,                        !- Space Name
    Outdoors,                !- Outside Boundary Condition
    ,                        !- Outside Boundary Condition Object
    SunExposed,              !- Sun Exposure
    WindExposed,             !- Wind Exposure
    ,                        !- View Factor to Ground
    4,                       !- Number of Vertices
    1.828800,                !- Vertex 1 X-coordinate {m}
    6.912864,                !- Vertex 1 Y-coordinate {m}
    3.962400,                !- Vertex 1 Z-coordinate {m}
    1.828800,                !- Vertex 2 X-coordinate {m}
    6.912864,                !- Vertex 2 Y-coordinate {m}
    2.743200,                !- Vertex 2 Z-coordinate {m}
    1.828800,                !- Vertex 3 X-coordinate {m}
    4.654296,                !- Vertex 3 Y-coordinate {m}
    2.743200,                !- Vertex 3 Z-coordinate {m}
    1.828800,                !- Vertex 4 X-coordinate {m}
    4.654296,                !- Vertex 4 Y-coordinate {m}
    4.064000;                !- Vertex 4 Z-coordinate {m}

BuildingSurface:Detailed,
    Surface 51,              !- Name
    Wall,                    !- Surface Type
    HIBO CMU Veneer Exterior Wall,  !- Construction Name
    Thermal Zone: Plenum,    !- Zone Name
    ,                        !- Space Name
    Outdoors,                !- Outside Boundary Condition
    ,                        !- Outside Boundary Condition Object
    SunExposed,              !- Sun Exposure
    WindExposed,             !- Wind Exposure
    ,                        !- View Factor to Ground
    4,                       !- Number of Vertices
    4.532376,                !- Vertex 1 X-coordinate {m}
    6.912864,                !- Vertex 1 Y-coordinate {m}
    3.962400,                !- Vertex 1 Z-coordinate {m}
    4.532376,                !- Vertex 2 X-coordinate {m}
    6.912864,                !- Vertex 2 Y-coordinate {m}
    2.743200,                !- Vertex 2 Z-coordinate {m}
    1.828800,                !- Vertex 3 X-coordinate {m}
    6.912864,                !- Vertex 3 Y-coordinate {m}
    2.743200,                !- Vertex 3 Z-coordinate {m}
    1.828800,                !- Vertex 4 X-coordinate {m}
    6.912864,                !- Vertex 4 Y-coordinate {m}
    3.962400;                !- Vertex 4 Z-coordinate {m}

BuildingSurface:Detailed,
    Surface 52,              !- Name
    Wall,                    !- Surface Type
    HIBO CMU Veneer Exterior Wall,  !- Construction Name
    Thermal Zone: Plenum,    !- Zone Name
    ,                        !- Space Name
    Outdoors,                !- Outside Boundary Condition
    ,                        !- Outside Boundary Condition Object
    SunExposed,              !- Sun Exposure
    WindExposed,             !- Wind Exposure
    ,                        !- View Factor to Ground
    4,                       !- Number of Vertices
    9.171432,                !- Vertex 1 X-coordinate {m}
    4.654296,                !- Vertex 1 Y-coordinate {m}
    4.064000,                !- Vertex 1 Z-coordinate {m}
    9.171432,                !- Vertex 2 X-coordinate {m}
    4.654296,                !- Vertex 2 Y-coordinate {m}
    3.048000,                !- Vertex 2 Z-coordinate {m}
    9.171432,                !- Vertex 3 X-coordinate {m}
    6.912864,                !- Vertex 3 Y-coordinate {m}
    3.048000,                !- Vertex 3 Z-coordinate {m}
    9.171432,                !- Vertex 4 X-coordinate {m}
    6.912864,                !- Vertex 4 Y-coordinate {m}
    3.962400;                !- Vertex 4 Z-coordinate {m}

BuildingSurface:Detailed,
    Surface 53,              !- Name
    Wall,                    !- Surface Type
    HIBO Metal Panel Exterior Wall,  !- Construction Name
    Thermal Zone: Plenum,    !- Zone Name
    ,                        !- Space Name
    Outdoors,                !- Outside Boundary Condition
    ,                        !- Outside Boundary Condition Object
    SunExposed,              !- Sun Exposure
    WindExposed,             !- Wind Exposure
    ,                        !- View Factor to Ground
    4,                       !- Number of Vertices
    11.000232,               !- Vertex 1 X-coordinate {m}
    4.654296,                !- Vertex 1 Y-coordinate {m}
    4.521200,                !- Vertex 1 Z-coordinate {m}
    11.000232,               !- Vertex 2 X-coordinate {m}
    4.654296,                !- Vertex 2 Y-coordinate {m}
    3.048000,                !- Vertex 2 Z-coordinate {m}
    9.171432,                !- Vertex 3 X-coordinate {m}
    4.654296,                !- Vertex 3 Y-coordinate {m}
    3.048000,                !- Vertex 3 Z-coordinate {m}
    9.171432,                !- Vertex 4 X-coordinate {m}
    4.654296,                !- Vertex 4 Y-coordinate {m}
    4.521200;                !- Vertex 4 Z-coordinate {m}

BuildingSurface:Detailed,
    Surface 54,              !- Name
    Wall,                    !- Surface Type
    HIBO Metal Panel Exterior Wall,  !- Construction Name
    Thermal Zone: Plenum,    !- Zone Name
    ,                        !- Space Name
    Outdoors,                !- Outside Boundary Condition
    ,                        !- Outside Boundary Condition Object
    SunExposed,              !- Sun Exposure
    WindExposed,             !- Wind Exposure
    ,                        !- View Factor to Ground
    4,                       !- Number of Vertices
    11.000232,               !- Vertex 1 X-coordinate {m}
    0.000000,                !- Vertex 1 Y-coordinate {m}
    4.724400,                !- Vertex 1 Z-coordinate {m}
    11.000232,               !- Vertex 2 X-coordinate {m}
    0.000000,                !- Vertex 2 Y-coordinate {m}
    3.048000,                !- Vertex 2 Z-coordinate {m}
    11.000232,               !- Vertex 3 X-coordinate {m}
    4.654296,                !- Vertex 3 Y-coordinate {m}
    3.048000,                !- Vertex 3 Z-coordinate {m}
    11.000232,               !- Vertex 4 X-coordinate {m}
    4.654296,                !- Vertex 4 Y-coordinate {m}
    4.521200;                !- Vertex 4 Z-coordinate {m}

BuildingSurface:Detailed,
    Surface 55,              !- Name
    Wall,                    !- Surface Type
    HIBO Metal Panel Exterior Wall,  !- Construction Name
    Thermal Zone: Plenum,    !- Zone Name
    ,                        !- Space Name
    Outdoors,                !- Outside Boundary Condition
    ,                        !- Outside Boundary Condition Object
    SunExposed,              !- Sun Exposure
    WindExposed,             !- Wind Exposure
    ,                        !- View Factor to Ground
    4,                       !- Number of Vertices
    0.000000,                !- Vertex 1 X-coordinate {m}
    0.000000,                !- Vertex 1 Y-coordinate {m}
    4.724400,                !- Vertex 1 Z-coordinate {m}
    0.000000,                !- Vertex 2 X-coordinate {m}
    0.000000,                !- Vertex 2 Y-coordinate {m}
    3.048000,                !- Vertex 2 Z-coordinate {m}
    11.000232,               !- Vertex 3 X-coordinate {m}
    0.000000,                !- Vertex 3 Y-coordinate {m}
    3.048000,                !- Vertex 3 Z-coordinate {m}
    11.000232,               !- Vertex 4 X-coordinate {m}
    0.000000,                !- Vertex 4 Y-coordinate {m}
    4.724400;                !- Vertex 4 Z-coordinate {m}

BuildingSurface:Detailed,
    Surface 61,              !- Name
    Floor,                   !- Surface Type
    HIBO APC-1 Ceiling,      !- Construction Name
    Thermal Zone: Plenum,    !- Zone Name
    ,                        !- Space Name
    Surface,                 !- Outside Boundary Condition
    Surface 46,              !- Outside Boundary Condition Object
    NoSun,                   !- Sun Exposure
    NoWind,                  !- Wind Exposure
    ,                        !- View Factor to Ground
    4,                       !- Number of Vertices
    9.171432,                !- Vertex 1 X-coordinate {m}
    6.912864,                !- Vertex 1 Y-coordinate {m}
    3.048000,                !- Vertex 1 Z-coordinate {m}
    9.171432,                !- Vertex 2 X-coordinate {m}
    4.654296,                !- Vertex 2 Y-coordinate {m}
    3.048000,                !- Vertex 2 Z-coordinate {m}
    6.312408,                !- Vertex 3 X-coordinate {m}
    4.654296,                !- Vertex 3 Y-coordinate {m}
    3.048000,                !- Vertex 3 Z-coordinate {m}
    6.312408,                !- Vertex 4 X-coordinate {m}
    6.912864,                !- Vertex 4 Y-coordinate {m}
    3.048000;                !- Vertex 4 Z-coordinate {m}

BuildingSurface:Detailed,
    Surface 62,              !- Name
    Floor,                   !- Surface Type
    HIBO GYP Ceiling,        !- Construction Name
    Thermal Zone: Plenum,    !- Zone Name
    ,                        !- Space Name
    Surface,                 !- Outside Boundary Condition
    Surface 14,              !- Outside Boundary Condition Object
    NoSun,                   !- Sun Exposure
    NoWind,                  !- Wind Exposure
    ,                        !- View Factor to Ground
    4,                       !- Number of Vertices
    7.043928,                !- Vertex 1 X-coordinate {m}
    2.734056,                !- Vertex 1 Y-coordinate {m}
    3.048000,                !- Vertex 1 Z-coordinate {m}
    7.043928,                !- Vertex 2 X-coordinate {m}
    0.000000,                !- Vertex 2 Y-coordinate {m}
    3.048000,                !- Vertex 2 Z-coordinate {m}
    3.956304,                !- Vertex 3 X-coordinate {m}
    0.000000,                !- Vertex 3 Y-coordinate {m}
    3.048000,                !- Vertex 3 Z-coordinate {m}
    3.956304,                !- Vertex 4 X-coordinate {m}
    2.734056,                !- Vertex 4 Y-coordinate {m}
    3.048000;                !- Vertex 4 Z-coordinate {m}

BuildingSurface:Detailed,
    Surface 63,              !- Name
    Floor,                   !- Surface Type
    HIBO APC-1 Ceiling,      !- Construction Name
    Thermal Zone: Plenum,    !- Zone Name
    ,                        !- Space Name
    Surface,                 !- Outside Boundary Condition
    Surface 32,              !- Outside Boundary Condition Object
    NoSun,                   !- Sun Exposure
    NoWind,                  !- Wind Exposure
    ,                        !- View Factor to Ground
    8,                       !- Number of Vertices
    6.312408,                !- Vertex 1 X-coordinate {m}
    6.912864,                !- Vertex 1 Y-coordinate {m}
    3.048000,                !- Vertex 1 Z-coordinate {m}
    6.312408,                !- Vertex 2 X-coordinate {m}
    4.654296,                !- Vertex 2 Y-coordinate {m}
    3.048000,                !- Vertex 2 Z-coordinate {m}
    7.043928,                !- Vertex 3 X-coordinate {m}
    4.654296,                !- Vertex 3 Y-coordinate {m}
    3.048000,                !- Vertex 3 Z-coordinate {m}
    7.043928,                !- Vertex 4 X-coordinate {m}
    2.734056,                !- Vertex 4 Y-coordinate {m}
    3.048000,                !- Vertex 4 Z-coordinate {m}
    3.956304,                !- Vertex 5 X-coordinate {m}
    2.734056,                !- Vertex 5 Y-coordinate {m}
    3.048000,                !- Vertex 5 Z-coordinate {m}
    3.956304,                !- Vertex 6 X-coordinate {m}
    4.654296,                !- Vertex 6 Y-coordinate {m}
    3.048000,                !- Vertex 6 Z-coordinate {m}
    4.532376,                !- Vertex 7 X-coordinate {m}
    4.654296,                !- Vertex 7 Y-coordinate {m}
    3.048000,                !- Vertex 7 Z-coordinate {m}
    4.532376,                !- Vertex 8 X-coordinate {m}
    6.912864,                !- Vertex 8 Y-coordinate {m}
    3.048000;                !- Vertex 8 Z-coordinate {m}

BuildingSurface:Detailed,
    Surface 64,              !- Name
    Floor,                   !- Surface Type
    HIBO APC-1 Ceiling,      !- Construction Name
    Thermal Zone: Plenum,    !- Zone Name
    ,                        !- Space Name
    Surface,                 !- Outside Boundary Condition
    Surface 39,              !- Outside Boundary Condition Object
    NoSun,                   !- Sun Exposure
    NoWind,                  !- Wind Exposure
    ,                        !- View Factor to Ground
    4,                       !- Number of Vertices
    4.532376,                !- Vertex 1 X-coordinate {m}
    6.912864,                !- Vertex 1 Y-coordinate {m}
    2.743200,                !- Vertex 1 Z-coordinate {m}
    4.532376,                !- Vertex 2 X-coordinate {m}
    4.654296,                !- Vertex 2 Y-coordinate {m}
    2.743200,                !- Vertex 2 Z-coordinate {m}
    1.828800,                !- Vertex 3 X-coordinate {m}
    4.654296,                !- Vertex 3 Y-coordinate {m}
    2.743200,                !- Vertex 3 Z-coordinate {m}
    1.828800,                !- Vertex 4 X-coordinate {m}
    6.912864,                !- Vertex 4 Y-coordinate {m}
    2.743200;                !- Vertex 4 Z-coordinate {m}

BuildingSurface:Detailed,
    Surface 65,              !- Name
    Floor,                   !- Surface Type
    HIBO APC-1 Ceiling,      !- Construction Name
    Thermal Zone: Plenum,    !- Zone Name
    ,                        !- Space Name
    Surface,                 !- Outside Boundary Condition
    Surface 8,               !- Outside Boundary Condition Object
    NoSun,                   !- Sun Exposure
    NoWind,                  !- Wind Exposure
    ,                        !- View Factor to Ground
    4,                       !- Number of Vertices
    3.956304,                !- Vertex 1 X-coordinate {m}
    4.654296,                !- Vertex 1 Y-coordinate {m}
    3.048000,                !- Vertex 1 Z-coordinate {m}
    3.956304,                !- Vertex 2 X-coordinate {m}
    0.000000,                !- Vertex 2 Y-coordinate {m}
    3.048000,                !- Vertex 2 Z-coordinate {m}
    0.000000,                !- Vertex 3 X-coordinate {m}
    0.000000,                !- Vertex 3 Y-coordinate {m}
    3.048000,                !- Vertex 3 Z-coordinate {m}
    0.000000,                !- Vertex 4 X-coordinate {m}
    4.654296,                !- Vertex 4 Y-coordinate {m}
    3.048000;                !- Vertex 4 Z-coordinate {m}

BuildingSurface:Detailed,
    Surface 1,               !- Name
    Floor,                   !- Surface Type
    HIBO Slab Carpet,        !- Construction Name
    Thermal Zone: Space 103 LAB B, !- Zone Name
    ,                        !- Space Name
    Ground,                  !- Outside Boundary Condition
    ,                        !- Outside Boundary Condition Object
    NoSun,                   !- Sun Exposure
    NoWind,                  !- Wind Exposure
    ,                        !- View Factor to Ground
    ,                        !- Number of Vertices
    3.956304,                !- Vertex 1 X-coordinate {m}
    4.654296,                !- Vertex 1 Y-coordinate {m}
    0,                       !- Vertex 1 Z-coordinate {m}
    3.956304,                !- Vertex 2 X-coordinate {m}
    0,                       !- Vertex 2 Y-coordinate {m}
    0,                       !- Vertex 2 Z-coordinate {m}
    0,                       !- Vertex 3 X-coordinate {m}
    0,                       !- Vertex 3 Y-coordinate {m}
    0,                       !- Vertex 3 Z-coordinate {m}
    0,                       !- Vertex 4 X-coordinate {m}
    4.654296,                !- Vertex 4 Y-coordinate {m}
    0;                       !- Vertex 4 Z-coordinate {m}

BuildingSurface:Detailed,
    Surface 3 Ext,           !- Name
    Wall,                    !- Surface Type
    HIBO Metal Panel Exterior Wall,  !- Construction Name
    Thermal Zone: Space 103 LAB B, !- Zone Name
    ,                        !- Space Name
    Outdoors,                !- Outside Boundary Condition
    ,                        !- Outside Boundary Condition Object
    SunExposed,              !- Sun Exposure
    WindExposed,             !- Wind Exposure
    ,                        !- View Factor to Ground
    4,                       !- Number of Vertices
    1.828800,                !- Vertex 1 X-coordinate {m}
    4.654296,                !- Vertex 1 Y-coordinate {m}
    3.048000,                !- Vertex 1 Z-coordinate {m}
    1.828800,                !- Vertex 2 X-coordinate {m}
    4.654296,                !- Vertex 2 Y-coordinate {m}
    0.000000,                !- Vertex 2 Z-coordinate {m}
    0.000000,                !- Vertex 3 X-coordinate {m}
    4.654296,                !- Vertex 3 Y-coordinate {m}
    0.000000,                !- Vertex 3 Z-coordinate {m}
    0.000000,                !- Vertex 4 X-coordinate {m}
    4.654296,                !- Vertex 4 Y-coordinate {m}
    3.048000;                !- Vertex 4 Z-coordinate {m}

BuildingSurface:Detailed,
    Surface 4,               !- Name
    Wall,                    !- Surface Type
    HIBO Interior Partition SA.8.21,  !- Construction Name
    Thermal Zone: Space 103 LAB B, !- Zone Name
    ,                        !- Space Name
    Surface,                 !- Outside Boundary Condition
    Surface 35,              !- Outside Boundary Condition Object
    NoSun,                   !- Sun Exposure
    NoWind,                  !- Wind Exposure
    ,                        !- View Factor to Ground
    4,                       !- Number of Vertices
    3.956304,                !- Vertex 1 X-coordinate {m}
    4.654296,                !- Vertex 1 Y-coordinate {m}
    2.743200,                !- Vertex 1 Z-coordinate {m}
    3.956304,                !- Vertex 2 X-coordinate {m}
    4.654296,                !- Vertex 2 Y-coordinate {m}
    0.000000,                !- Vertex 2 Z-coordinate {m}
    1.828800,                !- Vertex 3 X-coordinate {m}
    4.654296,                !- Vertex 3 Y-coordinate {m}
    0.000000,                !- Vertex 3 Z-coordinate {m}
    1.828800,                !- Vertex 4 X-coordinate {m}
    4.654296,                !- Vertex 4 Y-coordinate {m}
    2.743200;                !- Vertex 4 Z-coordinate {m}

BuildingSurface:Detailed,
    Surface 5,               !- Name
    Wall,                    !- Surface Type
    HIBO Interior Partition SA.6.20,  !- Construction Name
    Thermal Zone: Space 103 LAB B, !- Zone Name
    ,                        !- Space Name
    Surface,                 !- Outside Boundary Condition
    Surface 29,              !- Outside Boundary Condition Object
    NoSun,                   !- Sun Exposure
    NoWind,                  !- Wind Exposure
    ,                        !- View Factor to Ground
    4,                       !- Number of Vertices
    3.956304,                !- Vertex 1 X-coordinate {m}
    2.734056,                !- Vertex 1 Y-coordinate {m}
    3.048000,                !- Vertex 1 Z-coordinate {m}
    3.956304,                !- Vertex 2 X-coordinate {m}
    2.734056,                !- Vertex 2 Y-coordinate {m}
    0.000000,                !- Vertex 2 Z-coordinate {m}
    3.956304,                !- Vertex 3 X-coordinate {m}
    4.654296,                !- Vertex 3 Y-coordinate {m}
    0.000000,                !- Vertex 3 Z-coordinate {m}
    3.956304,                !- Vertex 4 X-coordinate {m}
    4.654296,                !- Vertex 4 Y-coordinate {m}
    3.048000;                !- Vertex 4 Z-coordinate {m}

BuildingSurface:Detailed,
    Surface 6,               !- Name
    Wall,                    !- Surface Type
    HIBO Interior Partition SA.6.20,  !- Construction Name
    Thermal Zone: Space 103 LAB B, !- Zone Name
    ,                        !- Space Name
    Surface,                 !- Outside Boundary Condition
    Surface 13,              !- Outside Boundary Condition Object
    NoSun,                   !- Sun Exposure
    NoWind,                  !- Wind Exposure
    ,                        !- View Factor to Ground
    4,                       !- Number of Vertices
    3.956304,                !- Vertex 1 X-coordinate {m}
    0.000000,                !- Vertex 1 Y-coordinate {m}
    3.048000,                !- Vertex 1 Z-coordinate {m}
    3.956304,                !- Vertex 2 X-coordinate {m}
    0.000000,                !- Vertex 2 Y-coordinate {m}
    0.000000,                !- Vertex 2 Z-coordinate {m}
    3.956304,                !- Vertex 3 X-coordinate {m}
    2.734056,                !- Vertex 3 Y-coordinate {m}
    0.000000,                !- Vertex 3 Z-coordinate {m}
    3.956304,                !- Vertex 4 X-coordinate {m}
    2.734056,                !- Vertex 4 Y-coordinate {m}
    3.048000;                !- Vertex 4 Z-coordinate {m}

BuildingSurface:Detailed,
    Surface 69 Ext,          !- Name
    Wall,                    !- Surface Type
    HIBO Metal Panel Exterior Wall,  !- Construction Name
    Thermal Zone: Space 103 LAB B, !- Zone Name
    ,                        !- Space Name
    Outdoors,                !- Outside Boundary Condition
    ,                        !- Outside Boundary Condition Object
    SunExposed,              !- Sun Exposure
    WindExposed,             !- Wind Exposure
    ,                        !- View Factor to Ground
    4,                       !- Number of Vertices
    0.000000,                !- Vertex 1 X-coordinate {m}
    0.000000,                !- Vertex 1 Y-coordinate {m}
    3.048000,                !- Vertex 1 Z-coordinate {m}
    0.000000,                !- Vertex 2 X-coordinate {m}
    0.000000,                !- Vertex 2 Y-coordinate {m}
    0.406400,                !- Vertex 2 Z-coordinate {m}
    3.956304,                !- Vertex 3 X-coordinate {m}
    0.000000,                !- Vertex 3 Y-coordinate {m}
    0.406400,                !- Vertex 3 Z-coordinate {m}
    3.956304,                !- Vertex 4 X-coordinate {m}
    0.000000,                !- Vertex 4 Y-coordinate {m}
    3.048000;                !- Vertex 4 Z-coordinate {m}

BuildingSurface:Detailed,
    Surface 70 Ext,          !- Name
    Wall,                    !- Surface Type
    HIBO Metal Panel Exterior Wall,  !- Construction Name
    Thermal Zone: Space 103 LAB B, !- Zone Name
    ,                        !- Space Name
    Outdoors,                !- Outside Boundary Condition
    ,                        !- Outside Boundary Condition Object
    SunExposed,              !- Sun Exposure
    WindExposed,             !- Wind Exposure
    ,                        !- View Factor to Ground
    4,                       !- Number of Vertices
    0.000000,                !- Vertex 1 X-coordinate {m}
    4.654296,                !- Vertex 1 Y-coordinate {m}
    3.048000,                !- Vertex 1 Z-coordinate {m}
    0.000000,                !- Vertex 2 X-coordinate {m}
    4.654296,                !- Vertex 2 Y-coordinate {m}
    0.000000,                !- Vertex 2 Z-coordinate {m}
    0.000000,                !- Vertex 3 X-coordinate {m}
    0.000000,                !- Vertex 3 Y-coordinate {m}
    0.000000,                !- Vertex 3 Z-coordinate {m}
    0.000000,                !- Vertex 4 X-coordinate {m}
    0.000000,                !- Vertex 4 Y-coordinate {m}
    3.048000;                !- Vertex 4 Z-coordinate {m}

BuildingSurface:Detailed,
    Surface 8,               !- Name
    Ceiling,                 !- Surface Type
    HIBO APC-1 Ceiling,      !- Construction Name
    Thermal Zone: Space 103 LAB B, !- Zone Name
    ,                        !- Space Name
    Surface,                 !- Outside Boundary Condition
    Surface 65,              !- Outside Boundary Condition Object
    NoSun,                   !- Sun Exposure
    NoWind,                  !- Wind Exposure
    ,                        !- View Factor to Ground
    4,                       !- Number of Vertices
    3.956304,                !- Vertex 1 X-coordinate {m}
    0.000000,                !- Vertex 1 Y-coordinate {m}
    3.048000,                !- Vertex 1 Z-coordinate {m}
    3.956304,                !- Vertex 2 X-coordinate {m}
    4.654296,                !- Vertex 2 Y-coordinate {m}
    3.048000,                !- Vertex 2 Z-coordinate {m}
    0.000000,                !- Vertex 3 X-coordinate {m}
    4.654296,                !- Vertex 3 Y-coordinate {m}
    3.048000,                !- Vertex 3 Z-coordinate {m}
    0.000000,                !- Vertex 4 X-coordinate {m}
    0.000000,                !- Vertex 4 Y-coordinate {m}
    3.048000;                !- Vertex 4 Z-coordinate {m}

BuildingSurface:Detailed,
    Surface 11,              !- Name
    Wall,                    !- Surface Type
    HIBO Interior Partition SA.6.20,  !- Construction Name
    Thermal Zone: Space 102 - Plus,  !- Zone Name
    ,                        !- Space Name
    Surface,                 !- Outside Boundary Condition
    Surface 20,              !- Outside Boundary Condition Object
    NoSun,                   !- Sun Exposure
    NoWind,                  !- Wind Exposure
    ,                        !- View Factor to Ground
    4,                       !- Number of Vertices
    7.043928,                !- Vertex 1 X-coordinate {m}
    0.000000,                !- Vertex 1 Y-coordinate {m}
    3.048000,                !- Vertex 1 Z-coordinate {m}
    7.043928,                !- Vertex 2 X-coordinate {m}
    0.000000,                !- Vertex 2 Y-coordinate {m}
    0.000000,                !- Vertex 2 Z-coordinate {m}
    7.043928,                !- Vertex 3 X-coordinate {m}
    2.734056,                !- Vertex 3 Y-coordinate {m}
    0.000000,                !- Vertex 3 Z-coordinate {m}
    7.043928,                !- Vertex 4 X-coordinate {m}
    2.734056,                !- Vertex 4 Y-coordinate {m}
    3.048000;                !- Vertex 4 Z-coordinate {m}

BuildingSurface:Detailed,
    Surface 13,              !- Name
    Wall,                    !- Surface Type
    HIBO Interior Partition SA.6.20,  !- Construction Name
    Thermal Zone: Space 102 - Plus,  !- Zone Name
    ,                        !- Space Name
    Surface,                 !- Outside Boundary Condition
    Surface 6,               !- Outside Boundary Condition Object
    NoSun,                   !- Sun Exposure
    NoWind,                  !- Wind Exposure
    ,                        !- View Factor to Ground
    4,                       !- Number of Vertices
    3.956304,                !- Vertex 1 X-coordinate {m}
    2.734056,                !- Vertex 1 Y-coordinate {m}
    3.048000,                !- Vertex 1 Z-coordinate {m}
    3.956304,                !- Vertex 2 X-coordinate {m}
    2.734056,                !- Vertex 2 Y-coordinate {m}
    0.000000,                !- Vertex 2 Z-coordinate {m}
    3.956304,                !- Vertex 3 X-coordinate {m}
    0.000000,                !- Vertex 3 Y-coordinate {m}
    0.000000,                !- Vertex 3 Z-coordinate {m}
    3.956304,                !- Vertex 4 X-coordinate {m}
    0.000000,                !- Vertex 4 Y-coordinate {m}
    3.048000;                !- Vertex 4 Z-coordinate {m}

BuildingSurface:Detailed,
    Surface 14,              !- Name
    Ceiling,                 !- Surface Type
    HIBO GYP Ceiling,        !- Construction Name
    Thermal Zone: Space 102 - Plus,  !- Zone Name
    ,                        !- Space Name
    Surface,                 !- Outside Boundary Condition
    Surface 62,              !- Outside Boundary Condition Object
    NoSun,                   !- Sun Exposure
    NoWind,                  !- Wind Exposure
    ,                        !- View Factor to Ground
    4,                       !- Number of Vertices
    7.043928,                !- Vertex 1 X-coordinate {m}
    0.000000,                !- Vertex 1 Y-coordinate {m}
    3.048000,                !- Vertex 1 Z-coordinate {m}
    7.043928,                !- Vertex 2 X-coordinate {m}
    2.734056,                !- Vertex 2 Y-coordinate {m}
    3.048000,                !- Vertex 2 Z-coordinate {m}
    3.956304,                !- Vertex 3 X-coordinate {m}
    2.734056,                !- Vertex 3 Y-coordinate {m}
    3.048000,                !- Vertex 3 Z-coordinate {m}
    3.956304,                !- Vertex 4 X-coordinate {m}
    0.000000,                !- Vertex 4 Y-coordinate {m}
    3.048000;                !- Vertex 4 Z-coordinate {m}

BuildingSurface:Detailed,
    Surface 68 Ext,          !- Name
    Wall,                    !- Surface Type
    HIBO Metal Panel Exterior Wall,  !- Construction Name
    Thermal Zone: Space 102 - Plus,  !- Zone Name
    ,                        !- Space Name
    Outdoors,                !- Outside Boundary Condition
    ,                        !- Outside Boundary Condition Object
    SunExposed,              !- Sun Exposure
    WindExposed,             !- Wind Exposure
    ,                        !- View Factor to Ground
    4,                       !- Number of Vertices
    3.956304,                !- Vertex 1 X-coordinate {m}
    0.000000,                !- Vertex 1 Y-coordinate {m}
    3.048000,                !- Vertex 1 Z-coordinate {m}
    3.956304,                !- Vertex 2 X-coordinate {m}
    0.000000,                !- Vertex 2 Y-coordinate {m}
    0.406400,                !- Vertex 2 Z-coordinate {m}
    7.043928,                !- Vertex 3 X-coordinate {m}
    0.000000,                !- Vertex 3 Y-coordinate {m}
    0.406400,                !- Vertex 3 Z-coordinate {m}
    7.043928,                !- Vertex 4 X-coordinate {m}
    0.000000,                !- Vertex 4 Y-coordinate {m}
    3.048000;                !- Vertex 4 Z-coordinate {m}

BuildingSurface:Detailed,
    Surface 9,               !- Name
    Floor,                   !- Surface Type
    HIBO Slab Carpet,        !- Construction Name
    Thermal Zone: Space 102 - Plus,  !- Zone Name
    ,                        !- Space Name
    Ground,                  !- Outside Boundary Condition
    ,                        !- Outside Boundary Condition Object
    NoSun,                   !- Sun Exposure
    NoWind,                  !- Wind Exposure
    ,                        !- View Factor to Ground
    ,                        !- Number of Vertices
    7.043928,                !- Vertex 1 X-coordinate {m}
    2.734056,                !- Vertex 1 Y-coordinate {m}
    0,                       !- Vertex 1 Z-coordinate {m}
    7.043928,                !- Vertex 2 X-coordinate {m}
    0,                       !- Vertex 2 Y-coordinate {m}
    0,                       !- Vertex 2 Z-coordinate {m}
    3.956304,                !- Vertex 3 X-coordinate {m}
    0,                       !- Vertex 3 Y-coordinate {m}
    0,                       !- Vertex 3 Z-coordinate {m}
    3.956304,                !- Vertex 4 X-coordinate {m}
    2.734056,                !- Vertex 4 Y-coordinate {m}
    0;                       !- Vertex 4 Z-coordinate {m}

BuildingSurface:Detailed,
    Surface 23,              !- Name
    Floor,                   !- Surface Type
    HIBO Slab Sealed Concrete,  !- Construction Name
    Thermal Zone: Space 102 - Plus,  !- Zone Name
    ,                        !- Space Name
    Ground,                  !- Outside Boundary Condition
    ,                        !- Outside Boundary Condition Object
    NoSun,                   !- Sun Exposure
    NoWind,                  !- Wind Exposure
    ,                        !- View Factor to Ground
    ,                        !- Number of Vertices
    6.312408,                !- Vertex 1 X-coordinate {m}
    6.912864,                !- Vertex 1 Y-coordinate {m}
    0,                       !- Vertex 1 Z-coordinate {m}
    6.312408,                !- Vertex 2 X-coordinate {m}
    4.654296,                !- Vertex 2 Y-coordinate {m}
    0,                       !- Vertex 2 Z-coordinate {m}
    7.043928,                !- Vertex 3 X-coordinate {m}
    4.654296,                !- Vertex 3 Y-coordinate {m}
    0,                       !- Vertex 3 Z-coordinate {m}
    7.043928,                !- Vertex 4 X-coordinate {m}
    2.734056,                !- Vertex 4 Y-coordinate {m}
    0,                       !- Vertex 4 Z-coordinate {m}
    3.956304,                !- Vertex 5 X-coordinate {m}
    2.734056,                !- Vertex 5 Y-coordinate {m}
    0,                       !- Vertex 5 Z-coordinate {m}
    3.956304,                !- Vertex 6 X-coordinate {m}
    4.654296,                !- Vertex 6 Y-coordinate {m}
    0,                       !- Vertex 6 Z-coordinate {m}
    4.532376,                !- Vertex 7 X-coordinate {m}
    4.654296,                !- Vertex 7 Y-coordinate {m}
    0,                       !- Vertex 7 Z-coordinate {m}
    4.532376,                !- Vertex 8 X-coordinate {m}
    6.912864,                !- Vertex 8 Y-coordinate {m}
    0;                       !- Vertex 8 Z-coordinate {m}

BuildingSurface:Detailed,
    Surface 24 Ext,          !- Name
    Wall,                    !- Surface Type
    HIBO CMU Veneer Exterior Wall,  !- Construction Name
    Thermal Zone: Space 102 - Plus,  !- Zone Name
    ,                        !- Space Name
    Outdoors,                !- Outside Boundary Condition
    ,                        !- Outside Boundary Condition Object
    SunExposed,              !- Sun Exposure
    WindExposed,             !- Wind Exposure
    ,                        !- View Factor to Ground
    4,                       !- Number of Vertices
    6.312408,                !- Vertex 1 X-coordinate {m}
    6.912864,                !- Vertex 1 Y-coordinate {m}
    3.048000,                !- Vertex 1 Z-coordinate {m}
    6.312408,                !- Vertex 2 X-coordinate {m}
    6.912864,                !- Vertex 2 Y-coordinate {m}
    0.000000,                !- Vertex 2 Z-coordinate {m}
    4.532376,                !- Vertex 3 X-coordinate {m}
    6.912864,                !- Vertex 3 Y-coordinate {m}
    0.000000,                !- Vertex 3 Z-coordinate {m}
    4.532376,                !- Vertex 4 X-coordinate {m}
    6.912864,                !- Vertex 4 Y-coordinate {m}
    3.048000;                !- Vertex 4 Z-coordinate {m}

BuildingSurface:Detailed,
    Surface 25,              !- Name
    Wall,                    !- Surface Type
    HIBO Interior Partition SA.6.20,  !- Construction Name
    Thermal Zone: Space 102 - Plus,  !- Zone Name
    ,                        !- Space Name
    Surface,                 !- Outside Boundary Condition
    Surface 45,              !- Outside Boundary Condition Object
    NoSun,                   !- Sun Exposure
    NoWind,                  !- Wind Exposure
    ,                        !- View Factor to Ground
    4,                       !- Number of Vertices
    6.312408,                !- Vertex 1 X-coordinate {m}
    4.654296,                !- Vertex 1 Y-coordinate {m}
    3.048000,                !- Vertex 1 Z-coordinate {m}
    6.312408,                !- Vertex 2 X-coordinate {m}
    4.654296,                !- Vertex 2 Y-coordinate {m}
    0.000000,                !- Vertex 2 Z-coordinate {m}
    6.312408,                !- Vertex 3 X-coordinate {m}
    6.912864,                !- Vertex 3 Y-coordinate {m}
    0.000000,                !- Vertex 3 Z-coordinate {m}
    6.312408,                !- Vertex 4 X-coordinate {m}
    6.912864,                !- Vertex 4 Y-coordinate {m}
    3.048000;                !- Vertex 4 Z-coordinate {m}

BuildingSurface:Detailed,
    Surface 26,              !- Name
    Wall,                    !- Surface Type
    HIBO Interior Partition SA.8.21,  !- Construction Name
    Thermal Zone: Space 102 - Plus,  !- Zone Name
    ,                        !- Space Name
    Surface,                 !- Outside Boundary Condition
    Surface 44,              !- Outside Boundary Condition Object
    NoSun,                   !- Sun Exposure
    NoWind,                  !- Wind Exposure
    ,                        !- View Factor to Ground
    4,                       !- Number of Vertices
    7.04392800,              !- Vertex 1 X-coordinate {m}
    4.65429600,              !- Vertex 1 Y-coordinate {m}
    3.04800000,              !- Vertex 1 Z-coordinate {m}
    7.04392800,              !- Vertex 2 X-coordinate {m}
    4.65429600,              !- Vertex 2 Y-coordinate {m}
    0.00000000,              !- Vertex 2 Z-coordinate {m}
    6.31240800,              !- Vertex 3 X-coordinate {m}
    4.65429600,              !- Vertex 3 Y-coordinate {m}
    0.00000000,              !- Vertex 3 Z-coordinate {m}
    6.31240800,              !- Vertex 4 X-coordinate {m}
    4.65429600,              !- Vertex 4 Y-coordinate {m}
    3.04800000;              !- Vertex 4 Z-coordinate {m}

BuildingSurface:Detailed,
    Surface 27,              !- Name
    Wall,                    !- Surface Type
    HIBO Interior Partition SA.6.20,  !- Construction Name
    Thermal Zone: Space 102 - Plus,  !- Zone Name
    ,                        !- Space Name
    Surface,                 !- Outside Boundary Condition
    Surface 21,              !- Outside Boundary Condition Object
    NoSun,                   !- Sun Exposure
    NoWind,                  !- Wind Exposure
    ,                        !- View Factor to Ground
    4,                       !- Number of Vertices
    7.043928,                !- Vertex 1 X-coordinate {m}
    2.734056,                !- Vertex 1 Y-coordinate {m}
    3.048000,                !- Vertex 1 Z-coordinate {m}
    7.043928,                !- Vertex 2 X-coordinate {m}
    2.734056,                !- Vertex 2 Y-coordinate {m}
    0.000000,                !- Vertex 2 Z-coordinate {m}
    7.043928,                !- Vertex 3 X-coordinate {m}
    4.654296,                !- Vertex 3 Y-coordinate {m}
    0.000000,                !- Vertex 3 Z-coordinate {m}
    7.043928,                !- Vertex 4 X-coordinate {m}
    4.654296,                !- Vertex 4 Y-coordinate {m}
    3.048000;                !- Vertex 4 Z-coordinate {m}

BuildingSurface:Detailed,
    Surface 29,              !- Name
    Wall,                    !- Surface Type
    HIBO Interior Partition SA.6.20,  !- Construction Name
    Thermal Zone: Space 102 - Plus,  !- Zone Name
    ,                        !- Space Name
    Surface,                 !- Outside Boundary Condition
    Surface 5,               !- Outside Boundary Condition Object
    NoSun,                   !- Sun Exposure
    NoWind,                  !- Wind Exposure
    ,                        !- View Factor to Ground
    4,                       !- Number of Vertices
    3.956304,                !- Vertex 1 X-coordinate {m}
    4.654296,                !- Vertex 1 Y-coordinate {m}
    3.048000,                !- Vertex 1 Z-coordinate {m}
    3.956304,                !- Vertex 2 X-coordinate {m}
    4.654296,                !- Vertex 2 Y-coordinate {m}
    0.000000,                !- Vertex 2 Z-coordinate {m}
    3.956304,                !- Vertex 3 X-coordinate {m}
    2.734056,                !- Vertex 3 Y-coordinate {m}
    0.000000,                !- Vertex 3 Z-coordinate {m}
    3.956304,                !- Vertex 4 X-coordinate {m}
    2.734056,                !- Vertex 4 Y-coordinate {m}
    3.048000;                !- Vertex 4 Z-coordinate {m}

BuildingSurface:Detailed,
    Surface 32,              !- Name
    Ceiling,                 !- Surface Type
    HIBO APC-1 Ceiling,      !- Construction Name
    Thermal Zone: Space 102 - Plus,  !- Zone Name
    ,                        !- Space Name
    Surface,                 !- Outside Boundary Condition
    Surface 63,              !- Outside Boundary Condition Object
    NoSun,                   !- Sun Exposure
    NoWind,                  !- Wind Exposure
    ,                        !- View Factor to Ground
    8,                       !- Number of Vertices
    7.043928,                !- Vertex 1 X-coordinate {m}
    2.734056,                !- Vertex 1 Y-coordinate {m}
    3.048000,                !- Vertex 1 Z-coordinate {m}
    7.043928,                !- Vertex 2 X-coordinate {m}
    4.654296,                !- Vertex 2 Y-coordinate {m}
    3.048000,                !- Vertex 2 Z-coordinate {m}
    6.312408,                !- Vertex 3 X-coordinate {m}
    4.654296,                !- Vertex 3 Y-coordinate {m}
    3.048000,                !- Vertex 3 Z-coordinate {m}
    6.312408,                !- Vertex 4 X-coordinate {m}
    6.912864,                !- Vertex 4 Y-coordinate {m}
    3.048000,                !- Vertex 4 Z-coordinate {m}
    4.532376,                !- Vertex 5 X-coordinate {m}
    6.912864,                !- Vertex 5 Y-coordinate {m}
    3.048000,                !- Vertex 5 Z-coordinate {m}
    4.532376,                !- Vertex 6 X-coordinate {m}
    4.654296,                !- Vertex 6 Y-coordinate {m}
    3.048000,                !- Vertex 6 Z-coordinate {m}
    3.956304,                !- Vertex 7 X-coordinate {m}
    4.654296,                !- Vertex 7 Y-coordinate {m}
    3.048000,                !- Vertex 7 Z-coordinate {m}
    3.956304,                !- Vertex 8 X-coordinate {m}
    2.734056,                !- Vertex 8 Y-coordinate {m}
    3.048000;                !- Vertex 8 Z-coordinate {m}

BuildingSurface:Detailed,
    Surface 33,              !- Name
    Floor,                   !- Surface Type
    HIBO Slab Sealed Concrete,  !- Construction Name
    Thermal Zone: Space 102 - Plus,  !- Zone Name
    ,                        !- Space Name
    Ground,                  !- Outside Boundary Condition
    ,                        !- Outside Boundary Condition Object
    NoSun,                   !- Sun Exposure
    NoWind,                  !- Wind Exposure
    ,                        !- View Factor to Ground
    ,                        !- Number of Vertices
    4.532376,                !- Vertex 1 X-coordinate {m}
    6.912864,                !- Vertex 1 Y-coordinate {m}
    0,                       !- Vertex 1 Z-coordinate {m}
    4.532376,                !- Vertex 2 X-coordinate {m}
    4.654296,                !- Vertex 2 Y-coordinate {m}
    0,                       !- Vertex 2 Z-coordinate {m}
    1.8288,                  !- Vertex 3 X-coordinate {m}
    4.654296,                !- Vertex 3 Y-coordinate {m}
    0,                       !- Vertex 3 Z-coordinate {m}
    1.8288,                  !- Vertex 4 X-coordinate {m}
    6.912864,                !- Vertex 4 Y-coordinate {m}
    0;                       !- Vertex 4 Z-coordinate {m}

BuildingSurface:Detailed,
    Surface 35,              !- Name
    Wall,                    !- Surface Type
    HIBO Interior Partition SA.8.21,  !- Construction Name
    Thermal Zone: Space 102 - Plus,  !- Zone Name
    ,                        !- Space Name
    Surface,                 !- Outside Boundary Condition
    Surface 4,               !- Outside Boundary Condition Object
    NoSun,                   !- Sun Exposure
    NoWind,                  !- Wind Exposure
    ,                        !- View Factor to Ground
    4,                       !- Number of Vertices
    1.828800,                !- Vertex 1 X-coordinate {m}
    4.654296,                !- Vertex 1 Y-coordinate {m}
    2.743200,                !- Vertex 1 Z-coordinate {m}
    1.828800,                !- Vertex 2 X-coordinate {m}
    4.654296,                !- Vertex 2 Y-coordinate {m}
    0.000000,                !- Vertex 2 Z-coordinate {m}
    3.956304,                !- Vertex 3 X-coordinate {m}
    4.654296,                !- Vertex 3 Y-coordinate {m}
    0.000000,                !- Vertex 3 Z-coordinate {m}
    3.956304,                !- Vertex 4 X-coordinate {m}
    4.654296,                !- Vertex 4 Y-coordinate {m}
    2.743200;                !- Vertex 4 Z-coordinate {m}

BuildingSurface:Detailed,
    Surface 36 Ext,          !- Name
    Wall,                    !- Surface Type
    HIBO CMU Veneer Exterior Wall,  !- Construction Name
    Thermal Zone: Space 102 - Plus,  !- Zone Name
    ,                        !- Space Name
    Outdoors,                !- Outside Boundary Condition
    ,                        !- Outside Boundary Condition Object
    SunExposed,              !- Sun Exposure
    WindExposed,             !- Wind Exposure
    ,                        !- View Factor to Ground
    4,                       !- Number of Vertices
    1.828800,                !- Vertex 1 X-coordinate {m}
    6.912864,                !- Vertex 1 Y-coordinate {m}
    2.743200,                !- Vertex 1 Z-coordinate {m}
    1.828800,                !- Vertex 2 X-coordinate {m}
    6.912864,                !- Vertex 2 Y-coordinate {m}
    0.000000,                !- Vertex 2 Z-coordinate {m}
    1.828800,                !- Vertex 3 X-coordinate {m}
    4.654296,                !- Vertex 3 Y-coordinate {m}
    0.000000,                !- Vertex 3 Z-coordinate {m}
    1.828800,                !- Vertex 4 X-coordinate {m}
    4.654296,                !- Vertex 4 Y-coordinate {m}
    2.743200;                !- Vertex 4 Z-coordinate {m}

BuildingSurface:Detailed,
    Surface 37 Ext,          !- Name
    Wall,                    !- Surface Type
    HIBO CMU Veneer Exterior Wall,  !- Construction Name
    Thermal Zone: Space 102 - Plus,  !- Zone Name
    ,                        !- Space Name
    Outdoors,                !- Outside Boundary Condition
    ,                        !- Outside Boundary Condition Object
    SunExposed,              !- Sun Exposure
    WindExposed,             !- Wind Exposure
    ,                        !- View Factor to Ground
    4,                       !- Number of Vertices
    4.532376,                !- Vertex 1 X-coordinate {m}
    6.912864,                !- Vertex 1 Y-coordinate {m}
    2.743200,                !- Vertex 1 Z-coordinate {m}
    4.532376,                !- Vertex 2 X-coordinate {m}
    6.912864,                !- Vertex 2 Y-coordinate {m}
    0.000000,                !- Vertex 2 Z-coordinate {m}
    1.828800,                !- Vertex 3 X-coordinate {m}
    6.912864,                !- Vertex 3 Y-coordinate {m}
    0.000000,                !- Vertex 3 Z-coordinate {m}
    1.828800,                !- Vertex 4 X-coordinate {m}
    6.912864,                !- Vertex 4 Y-coordinate {m}
    2.743200;                !- Vertex 4 Z-coordinate {m}

BuildingSurface:Detailed,
    Surface 39,              !- Name
    Ceiling,                 !- Surface Type
    HIBO APC-1 Ceiling,      !- Construction Name
    Thermal Zone: Space 102 - Plus,  !- Zone Name
    ,                        !- Space Name
    Surface,                 !- Outside Boundary Condition
    Surface 64,              !- Outside Boundary Condition Object
    NoSun,                   !- Sun Exposure
    NoWind,                  !- Wind Exposure
    ,                        !- View Factor to Ground
    4,                       !- Number of Vertices
    4.532376,                !- Vertex 1 X-coordinate {m}
    4.654296,                !- Vertex 1 Y-coordinate {m}
    2.743200,                !- Vertex 1 Z-coordinate {m}
    4.532376,                !- Vertex 2 X-coordinate {m}
    6.912864,                !- Vertex 2 Y-coordinate {m}
    2.743200,                !- Vertex 2 Z-coordinate {m}
    1.828800,                !- Vertex 3 X-coordinate {m}
    6.912864,                !- Vertex 3 Y-coordinate {m}
    2.743200,                !- Vertex 3 Z-coordinate {m}
    1.828800,                !- Vertex 4 X-coordinate {m}
    4.654296,                !- Vertex 4 Y-coordinate {m}
    2.743200;                !- Vertex 4 Z-coordinate {m}

BuildingSurface:Detailed,
    Surface 15,              !- Name
    Floor,                   !- Surface Type
    HIBO Slab Carpet,        !- Construction Name
    Thermal Zone: Space 105 LAB A, !- Zone Name
    ,                        !- Space Name
    Ground,                  !- Outside Boundary Condition
    ,                        !- Outside Boundary Condition Object
    NoSun,                   !- Sun Exposure
    NoWind,                  !- Wind Exposure
    ,                        !- View Factor to Ground
    4,                       !- Number of Vertices
    7.043928,                !- Vertex 1 X-coordinate {m}
    4.654296,                !- Vertex 1 Y-coordinate {m}
    0,                       !- Vertex 1 Z-coordinate {m}
    11.000232,               !- Vertex 2 X-coordinate {m}
    4.654296,                !- Vertex 2 Y-coordinate {m}
    0,                       !- Vertex 2 Z-coordinate {m}
    11.000232,               !- Vertex 3 X-coordinate {m}
    0.000000,                !- Vertex 3 Y-coordinate {m}
    0,                       !- Vertex 3 Z-coordinate {m}
    7.043928,                !- Vertex 4 X-coordinate {m}
    0,                       !- Vertex 4 Y-coordinate {m}
    0;                       !- Vertex 4 Z-coordinate {m}

BuildingSurface:Detailed,
    Surface 16,              !- Name
    Wall,                    !- Surface Type
    HIBO Interior Partition SA.8.21,  !- Construction Name
    Thermal Zone: Space 105 LAB A, !- Zone Name
    ,                        !- Space Name
    Surface,                 !- Outside Boundary Condition
    Surface 43,              !- Outside Boundary Condition Object
    NoSun,                   !- Sun Exposure
    NoWind,                  !- Wind Exposure
    ,                        !- View Factor to Ground
    4,                       !- Number of Vertices
    9.17143200,              !- Vertex 1 X-coordinate {m}
    4.65429600,              !- Vertex 1 Y-coordinate {m}
    3.04800000,              !- Vertex 1 Z-coordinate {m}
    9.17143200,              !- Vertex 2 X-coordinate {m}
    4.65429600,              !- Vertex 2 Y-coordinate {m}
    0.00000000,              !- Vertex 2 Z-coordinate {m}
    7.04392800,              !- Vertex 3 X-coordinate {m}
    4.65429600,              !- Vertex 3 Y-coordinate {m}
    0.00000000,              !- Vertex 3 Z-coordinate {m}
    7.04392800,              !- Vertex 4 X-coordinate {m}
    4.65429600,              !- Vertex 4 Y-coordinate {m}
    3.04800000;              !- Vertex 4 Z-coordinate {m}

BuildingSurface:Detailed,
    Surface 17 Ext,          !- Name
    Wall,                    !- Surface Type
    HIBO Metal Panel Exterior Wall,  !- Construction Name
    Thermal Zone: Space 105 LAB A, !- Zone Name
    ,                        !- Space Name
    Outdoors,                !- Outside Boundary Condition
    ,                        !- Outside Boundary Condition Object
    SunExposed,              !- Sun Exposure
    WindExposed,             !- Wind Exposure
    ,                        !- View Factor to Ground
    4,                       !- Number of Vertices
    9.171432,                !- Vertex 1 X-coordinate {m}
    4.654296,                !- Vertex 1 Y-coordinate {m}
    3.048000,                !- Vertex 1 Z-coordinate {m}
    11.000232,               !- Vertex 2 X-coordinate {m}
    4.654296,                !- Vertex 2 Y-coordinate {m}
    3.048000,                !- Vertex 2 Z-coordinate {m}
    11.000232,               !- Vertex 3 X-coordinate {m}
    4.654296,                !- Vertex 3 Y-coordinate {m}
    0.000000,                !- Vertex 3 Z-coordinate {m}
    9.171432,                !- Vertex 4 X-coordinate {m}
    4.654296,                !- Vertex 4 Y-coordinate {m}
    0.000000;                !- Vertex 4 Z-coordinate {m}

BuildingSurface:Detailed,
    Surface 20,              !- Name
    Wall,                    !- Surface Type
    HIBO Interior Partition SA.6.20,  !- Construction Name
    Thermal Zone: Space 105 LAB A, !- Zone Name
    ,                        !- Space Name
    Surface,                 !- Outside Boundary Condition
    Surface 11,              !- Outside Boundary Condition Object
    NoSun,                   !- Sun Exposure
    NoWind,                  !- Wind Exposure
    ,                        !- View Factor to Ground
    4,                       !- Number of Vertices
    7.043928,                !- Vertex 1 X-coordinate {m}
    2.734056,                !- Vertex 1 Y-coordinate {m}
    3.048000,                !- Vertex 1 Z-coordinate {m}
    7.043928,                !- Vertex 2 X-coordinate {m}
    2.734056,                !- Vertex 2 Y-coordinate {m}
    0.000000,                !- Vertex 2 Z-coordinate {m}
    7.043928,                !- Vertex 3 X-coordinate {m}
    0.000000,                !- Vertex 3 Y-coordinate {m}
    0.000000,                !- Vertex 3 Z-coordinate {m}
    7.043928,                !- Vertex 4 X-coordinate {m}
    0.000000,                !- Vertex 4 Y-coordinate {m}
    3.048000;                !- Vertex 4 Z-coordinate {m}

BuildingSurface:Detailed,
    Surface 21,              !- Name
    Wall,                    !- Surface Type
    HIBO Interior Partition SA.6.20,  !- Construction Name
    Thermal Zone: Space 105 LAB A, !- Zone Name
    ,                        !- Space Name
    Surface,                 !- Outside Boundary Condition
    Surface 27,              !- Outside Boundary Condition Object
    NoSun,                   !- Sun Exposure
    NoWind,                  !- Wind Exposure
    ,                        !- View Factor to Ground
    4,                       !- Number of Vertices
    7.043928,                !- Vertex 1 X-coordinate {m}
    4.654296,                !- Vertex 1 Y-coordinate {m}
    3.048000,                !- Vertex 1 Z-coordinate {m}
    7.043928,                !- Vertex 2 X-coordinate {m}
    4.654296,                !- Vertex 2 Y-coordinate {m}
    0.000000,                !- Vertex 2 Z-coordinate {m}
    7.043928,                !- Vertex 3 X-coordinate {m}
    2.734056,                !- Vertex 3 Y-coordinate {m}
    0.000000,                !- Vertex 3 Z-coordinate {m}
    7.043928,                !- Vertex 4 X-coordinate {m}
    2.734056,                !- Vertex 4 Y-coordinate {m}
    3.048000;                !- Vertex 4 Z-coordinate {m}

BuildingSurface:Detailed,
    Surface 22,              !- Name
    Ceiling,                 !- Surface Type
    HIBO APC-1 Ceiling,      !- Construction Name
    Thermal Zone: Space 105 LAB A, !- Zone Name
    ,                        !- Space Name
    Surface,                 !- Outside Boundary Condition
    Surface 47,              !- Outside Boundary Condition Object
    NoSun,                   !- Sun Exposure
    NoWind,                  !- Wind Exposure
    ,                        !- View Factor to Ground
    4,                       !- Number of Vertices
    7.043928,                !- Vertex 1 X-coordinate {m}
    4.654296,                !- Vertex 1 Y-coordinate {m}
    3.048000,                !- Vertex 1 Z-coordinate {m}
    7.043928,                !- Vertex 2 X-coordinate {m}
    0.000000,                !- Vertex 2 Y-coordinate {m}
    3.048000,                !- Vertex 2 Z-coordinate {m}
    11.000232,               !- Vertex 3 X-coordinate {m}
    0.000000,                !- Vertex 3 Y-coordinate {m}
    3.048000,                !- Vertex 3 Z-coordinate {m}
    11.000232,               !- Vertex 4 X-coordinate {m}
    4.654296,                !- Vertex 4 Y-coordinate {m}
    3.048000;                !- Vertex 4 Z-coordinate {m}

BuildingSurface:Detailed,
    Surface 66 Ext,          !- Name
    Wall,                    !- Surface Type
    HIBO Metal Panel Exterior Wall,  !- Construction Name
    Thermal Zone: Space 105 LAB A, !- Zone Name
    ,                        !- Space Name
    Outdoors,                !- Outside Boundary Condition
    ,                        !- Outside Boundary Condition Object
    SunExposed,              !- Sun Exposure
    WindExposed,             !- Wind Exposure
    ,                        !- View Factor to Ground
    4,                       !- Number of Vertices
    7.043928,                !- Vertex 1 X-coordinate {m}
    0.000000,                !- Vertex 1 Y-coordinate {m}
    3.048000,                !- Vertex 1 Z-coordinate {m}
    7.043928,                !- Vertex 2 X-coordinate {m}
    0.000000,                !- Vertex 2 Y-coordinate {m}
    0.406400,                !- Vertex 2 Z-coordinate {m}
    11.000232,               !- Vertex 3 X-coordinate {m}
    0.000000,                !- Vertex 3 Y-coordinate {m}
    0.406400,                !- Vertex 3 Z-coordinate {m}
    11.000232,               !- Vertex 4 X-coordinate {m}
    0.000000,                !- Vertex 4 Y-coordinate {m}
    3.048000;                !- Vertex 4 Z-coordinate {m}

BuildingSurface:Detailed,
    Surface 69 Low CMU,      !- Name
    Wall,                    !- Surface Type
    HIBO CMU Veneer Exterior Wall,  !- Construction Name
    Thermal Zone: Space 103 LAB B, !- Zone Name
    ,                        !- Space Name
    Outdoors,                !- Outside Boundary Condition
    ,                        !- Outside Boundary Condition Object
    SunExposed,              !- Sun Exposure
    WindExposed,             !- Wind Exposure
    ,                        !- View Factor to Ground
    4,                       !- Number of Vertices
    0.000000,                !- Vertex 1 X-coordinate {m}
    0.000000,                !- Vertex 1 Y-coordinate {m}
    0.406400,                !- Vertex 1 Z-coordinate {m}
    0.000000,                !- Vertex 2 X-coordinate {m}
    0.000000,                !- Vertex 2 Y-coordinate {m}
    0.000000,                !- Vertex 2 Z-coordinate {m}
    3.956304,                !- Vertex 3 X-coordinate {m}
    0.000000,                !- Vertex 3 Y-coordinate {m}
    0.000000,                !- Vertex 3 Z-coordinate {m}
    3.956304,                !- Vertex 4 X-coordinate {m}
    0.000000,                !- Vertex 4 Y-coordinate {m}
    0.406400;                !- Vertex 4 Z-coordinate {m}

BuildingSurface:Detailed,
    Surface 68 Low CMU,      !- Name
    Wall,                    !- Surface Type
    HIBO CMU Veneer Exterior Wall,  !- Construction Name
    Thermal Zone: Space 102 - Plus,  !- Zone Name
    ,                        !- Space Name
    Outdoors,                !- Outside Boundary Condition
    ,                        !- Outside Boundary Condition Object
    SunExposed,              !- Sun Exposure
    WindExposed,             !- Wind Exposure
    ,                        !- View Factor to Ground
    4,                       !- Number of Vertices
    3.956304,                !- Vertex 1 X-coordinate {m}
    0.000000,                !- Vertex 1 Y-coordinate {m}
    0.406400,                !- Vertex 1 Z-coordinate {m}
    3.956304,                !- Vertex 2 X-coordinate {m}
    0.000000,                !- Vertex 2 Y-coordinate {m}
    0.000000,                !- Vertex 2 Z-coordinate {m}
    7.043928,                !- Vertex 3 X-coordinate {m}
    0.000000,                !- Vertex 3 Y-coordinate {m}
    0.000000,                !- Vertex 3 Z-coordinate {m}
    7.043928,                !- Vertex 4 X-coordinate {m}
    0.000000,                !- Vertex 4 Y-coordinate {m}
    0.406400;                !- Vertex 4 Z-coordinate {m}

BuildingSurface:Detailed,
    Surface 66 Low CMU,      !- Name
    Wall,                    !- Surface Type
    HIBO CMU Veneer Exterior Wall,  !- Construction Name
    Thermal Zone: Space 105 LAB A, !- Zone Name
    ,                        !- Space Name
    Outdoors,                !- Outside Boundary Condition
    ,                        !- Outside Boundary Condition Object
    SunExposed,              !- Sun Exposure
    WindExposed,             !- Wind Exposure
    ,                        !- View Factor to Ground
    4,                       !- Number of Vertices
    7.043928,                !- Vertex 1 X-coordinate {m}
    0.000000,                !- Vertex 1 Y-coordinate {m}
    0.406400,                !- Vertex 1 Z-coordinate {m}
    7.043928,                !- Vertex 2 X-coordinate {m}
    0.000000,                !- Vertex 2 Y-coordinate {m}
    0.000000,                !- Vertex 2 Z-coordinate {m}
    11.000232,               !- Vertex 3 X-coordinate {m}
    0.000000,                !- Vertex 3 Y-coordinate {m}
    0.000000,                !- Vertex 3 Z-coordinate {m}
    11.000232,               !- Vertex 4 X-coordinate {m}
    0.000000,                !- Vertex 4 Y-coordinate {m}
    0.406400;                !- Vertex 4 Z-coordinate {m}

BuildingSurface:Detailed,
    Surface 67 Ext,          !- Name
    Wall,                    !- Surface Type
    HIBO Metal Panel Exterior Wall,  !- Construction Name
    Thermal Zone: Space 105 LAB A, !- Zone Name
    ,                        !- Space Name
    Outdoors,                !- Outside Boundary Condition
    ,                        !- Outside Boundary Condition Object
    SunExposed,              !- Sun Exposure
    WindExposed,             !- Wind Exposure
    ,                        !- View Factor to Ground
    4,                       !- Number of Vertices
    11.000232,               !- Vertex 1 X-coordinate {m}
    0.000000,                !- Vertex 1 Y-coordinate {m}
    3.048000,                !- Vertex 1 Z-coordinate {m}
    11.000232,               !- Vertex 2 X-coordinate {m}
    0.000000,                !- Vertex 2 Y-coordinate {m}
    0.000000,                !- Vertex 2 Z-coordinate {m}
    11.000232,               !- Vertex 3 X-coordinate {m}
    4.654296,                !- Vertex 3 Y-coordinate {m}
    0.000000,                !- Vertex 3 Z-coordinate {m}
    11.000232,               !- Vertex 4 X-coordinate {m}
    4.654296,                !- Vertex 4 Y-coordinate {m}
    3.048000;                !- Vertex 4 Z-coordinate {m}

BuildingSurface:Detailed,
    Surface 56A,             !- Name
    Roof,                    !- Surface Type
    HIBO EPDM Insulated Roof,!- Construction Name
    Thermal Zone: Plenum,    !- Zone Name
    ,                        !- Space Name
    Outdoors,                !- Outside Boundary Condition
    ,                        !- Outside Boundary Condition Object
    SunExposed,              !- Sun Exposure
    WindExposed,             !- Wind Exposure
    ,                        !- View Factor to Ground
    4,                       !- Number of Vertices
    9.171432,                !- Vertex 1 X-coordinate {m}
    6.912864,                !- Vertex 1 Y-coordinate {m}
    3.962400,                !- Vertex 1 Z-coordinate {m}
    1.828800,                !- Vertex 2 X-coordinate {m}
    6.912864,                !- Vertex 2 Y-coordinate {m}
    3.962400,                !- Vertex 2 Z-coordinate {m}
    1.828800,                !- Vertex 3 X-coordinate {m}
    4.654296,                !- Vertex 3 Y-coordinate {m}
    4.064000,                !- Vertex 3 Z-coordinate {m}
    9.171432,                !- Vertex 4 X-coordinate {m}
    4.654296,                !- Vertex 4 Y-coordinate {m}
    4.064000;                !- Vertex 4 Z-coordinate {m}

BuildingSurface:Detailed,
    Surface 56B,             !- Name
    Roof,                    !- Surface Type
    HIBO EPDM Insulated Roof,!- Construction Name
    Thermal Zone: Plenum,    !- Zone Name
    ,                        !- Space Name
    Outdoors,                !- Outside Boundary Condition
    ,                        !- Outside Boundary Condition Object
    SunExposed,              !- Sun Exposure
    WindExposed,             !- Wind Exposure
    ,                        !- View Factor to Ground
    4,                       !- Number of Vertices
    0.000000,                !- Vertex 1 X-coordinate {m}
    4.654296,                !- Vertex 1 Y-coordinate {m}
    4.521200,                !- Vertex 1 Z-coordinate {m}
    0.000000,                !- Vertex 2 X-coordinate {m}
    0.000000,                !- Vertex 2 Y-coordinate {m}
    4.724400,                !- Vertex 2 Z-coordinate {m}
    11.000232,               !- Vertex 3 X-coordinate {m}
    0.000000,                !- Vertex 3 Y-coordinate {m}
    4.724400,                !- Vertex 3 Z-coordinate {m}
    11.000232,               !- Vertex 4 X-coordinate {m}
    4.654296,                !- Vertex 4 Y-coordinate {m}
    4.521200;                !- Vertex 4 Z-coordinate {m}

BuildingSurface:Detailed,
    Surface 71,              !- Name
    Wall,                    !- Surface Type
    HIBO Interior Partition SA.8.21,  !- Construction Name
    Thermal Zone: Space 103 LAB B, !- Zone Name
    ,                        !- Space Name
    Surface,                 !- Outside Boundary Condition
    Surface 72,              !- Outside Boundary Condition Object
    NoSun,                   !- Sun Exposure
    NoWind,                  !- Wind Exposure
    ,                        !- View Factor to Ground
    4,                       !- Number of Vertices
    3.956304,                !- Vertex 1 X-coordinate {m}
    4.654296,                !- Vertex 1 Y-coordinate {m}
    3.048000,                !- Vertex 1 Z-coordinate {m}
    3.956304,                !- Vertex 2 X-coordinate {m}
    4.654296,                !- Vertex 2 Y-coordinate {m}
    2.743200,                !- Vertex 2 Z-coordinate {m}
    1.828800,                !- Vertex 3 X-coordinate {m}
    4.654296,                !- Vertex 3 Y-coordinate {m}
    2.743200,                !- Vertex 3 Z-coordinate {m}
    1.828800,                !- Vertex 4 X-coordinate {m}
    4.654296,                !- Vertex 4 Y-coordinate {m}
    3.048000;                !- Vertex 4 Z-coordinate {m}

BuildingSurface:Detailed,
    Surface 72,              !- Name
    Wall,                    !- Surface Type
    HIBO Interior Partition SA.8.21,  !- Construction Name
    Thermal Zone: Plenum,    !- Zone Name
    ,                        !- Space Name
    Surface,                 !- Outside Boundary Condition
    Surface 71,              !- Outside Boundary Condition Object
    NoSun,                   !- Sun Exposure
    NoWind,                  !- Wind Exposure
    ,                        !- View Factor to Ground
    4,                       !- Number of Vertices
    1.828800,                !- Vertex 1 X-coordinate {m}
    4.654296,                !- Vertex 1 Y-coordinate {m}
    3.048000,                !- Vertex 1 Z-coordinate {m}
    1.828800,                !- Vertex 2 X-coordinate {m}
    4.654296,                !- Vertex 2 Y-coordinate {m}
    2.743200,                !- Vertex 2 Z-coordinate {m}
    3.956304,                !- Vertex 3 X-coordinate {m}
    4.654296,                !- Vertex 3 Y-coordinate {m}
    2.743200,                !- Vertex 3 Z-coordinate {m}
    3.956304,                !- Vertex 4 X-coordinate {m}
    4.654296,                !- Vertex 4 Y-coordinate {m}
    3.048000;                !- Vertex 4 Z-coordinate {m}

BuildingSurface:Detailed,
    Surface 73,              !- Name
    Wall,                    !- Surface Type
    HIBO Interior Partition SA.6.20,  !- Construction Name
    Thermal Zone: Space 102 - Plus,  !- Zone Name
    ,                        !- Space Name
    Surface,                 !- Outside Boundary Condition
    Surface 74,              !- Outside Boundary Condition Object
    NoSun,                   !- Sun Exposure
    NoWind,                  !- Wind Exposure
    ,                        !- View Factor to Ground
    4,                       !- Number of Vertices
    4.532376,                !- Vertex 1 X-coordinate {m}
    4.654296,                !- Vertex 1 Y-coordinate {m}
    3.048000,                !- Vertex 1 Z-coordinate {m}
    4.532376,                !- Vertex 2 X-coordinate {m}
    4.654296,                !- Vertex 2 Y-coordinate {m}
    2.743200,                !- Vertex 2 Z-coordinate {m}
    3.956304,                !- Vertex 3 X-coordinate {m}
    4.654296,                !- Vertex 3 Y-coordinate {m}
    2.743200,                !- Vertex 3 Z-coordinate {m}
    3.956304,                !- Vertex 4 X-coordinate {m}
    4.654296,                !- Vertex 4 Y-coordinate {m}
    3.048000;                !- Vertex 4 Z-coordinate {m}

BuildingSurface:Detailed,
    Surface 74,              !- Name
    Wall,                    !- Surface Type
    HIBO Interior Partition SA.6.20,  !- Construction Name
    Thermal Zone: Plenum,    !- Zone Name
    ,                        !- Space Name
    Surface,                 !- Outside Boundary Condition
    Surface 73,              !- Outside Boundary Condition Object
    NoSun,                   !- Sun Exposure
    NoWind,                  !- Wind Exposure
    ,                        !- View Factor to Ground
    4,                       !- Number of Vertices
    3.956304,                !- Vertex 1 X-coordinate {m}
    4.654296,                !- Vertex 1 Y-coordinate {m}
    3.048000,                !- Vertex 1 Z-coordinate {m}
    3.956304,                !- Vertex 2 X-coordinate {m}
    4.654296,                !- Vertex 2 Y-coordinate {m}
    2.743200,                !- Vertex 2 Z-coordinate {m}
    4.532376,                !- Vertex 3 X-coordinate {m}
    4.654296,                !- Vertex 3 Y-coordinate {m}
    2.743200,                !- Vertex 3 Z-coordinate {m}
    4.532376,                !- Vertex 4 X-coordinate {m}
    4.654296,                !- Vertex 4 Y-coordinate {m}
    3.048000;                !- Vertex 4 Z-coordinate {m}

BuildingSurface:Detailed,
    Surface 75,              !- Name
    Wall,                    !- Surface Type
    HIBO Interior Partition SA.6.20,  !- Construction Name
    Thermal Zone: Space 102 - Plus,  !- Zone Name
    ,                        !- Space Name
    Surface,                 !- Outside Boundary Condition
    Surface 76,              !- Outside Boundary Condition Object
    NoSun,                   !- Sun Exposure
    NoWind,                  !- Wind Exposure
    ,                        !- View Factor to Ground
    4,                       !- Number of Vertices
    4.532376,                !- Vertex 1 X-coordinate {m}
    6.912864,                !- Vertex 1 Y-coordinate {m}
    3.048000,                !- Vertex 1 Z-coordinate {m}
    4.532376,                !- Vertex 2 X-coordinate {m}
    6.912864,                !- Vertex 2 Y-coordinate {m}
    2.743200,                !- Vertex 2 Z-coordinate {m}
    4.532376,                !- Vertex 3 X-coordinate {m}
    4.654296,                !- Vertex 3 Y-coordinate {m}
    2.743200,                !- Vertex 3 Z-coordinate {m}
    4.532376,                !- Vertex 4 X-coordinate {m}
    4.654296,                !- Vertex 4 Y-coordinate {m}
    3.048000;                !- Vertex 4 Z-coordinate {m}

BuildingSurface:Detailed,
    Surface 76,              !- Name
    Wall,                    !- Surface Type
    HIBO Interior Partition SA.6.20,  !- Construction Name
    Thermal Zone: Plenum,    !- Zone Name
    ,                        !- Space Name
    Surface,                 !- Outside Boundary Condition
    Surface 75,              !- Outside Boundary Condition Object
    NoSun,                   !- Sun Exposure
    NoWind,                  !- Wind Exposure
    ,                        !- View Factor to Ground
    4,                       !- Number of Vertices
    4.532376,                !- Vertex 1 X-coordinate {m}
    4.654296,                !- Vertex 1 Y-coordinate {m}
    3.048000,                !- Vertex 1 Z-coordinate {m}
    4.532376,                !- Vertex 2 X-coordinate {m}
    4.654296,                !- Vertex 2 Y-coordinate {m}
    2.743200,                !- Vertex 2 Z-coordinate {m}
    4.532376,                !- Vertex 3 X-coordinate {m}
    6.912864,                !- Vertex 3 Y-coordinate {m}
    2.743200,                !- Vertex 3 Z-coordinate {m}
    4.532376,                !- Vertex 4 X-coordinate {m}
    6.912864,                !- Vertex 4 Y-coordinate {m}
    3.048000;                !- Vertex 4 Z-coordinate {m}

BuildingSurface:Detailed,
    Surface 77,              !- Name
    Wall,                    !- Surface Type
    HIBO Metal Panel Exterior Wall,  !- Construction Name
    Thermal Zone: Plenum,    !- Zone Name
    ,                        !- Space Name
    Outdoors,                !- Outside Boundary Condition
    ,                        !- Outside Boundary Condition Object
    SunExposed,              !- Sun Exposure
    WindExposed,             !- Wind Exposure
    ,                        !- View Factor to Ground
    4,                       !- Number of Vertices
    9.171432,                !- Vertex 1 X-coordinate {m}
    4.654296,                !- Vertex 1 Y-coordinate {m}
    4.521200,                !- Vertex 1 Z-coordinate {m}
    9.171432,                !- Vertex 2 X-coordinate {m}
    4.654296,                !- Vertex 2 Y-coordinate {m}
    4.064000,                !- Vertex 2 Z-coordinate {m}
    1.828800,                !- Vertex 3 X-coordinate {m}
    4.654296,                !- Vertex 3 Y-coordinate {m}
    4.064000,                !- Vertex 3 Z-coordinate {m}
    1.828800,                !- Vertex 4 X-coordinate {m}
    4.654296,                !- Vertex 4 Y-coordinate {m}
    4.521200;                !- Vertex 4 Z-coordinate {m}

BuildingSurface:Detailed,
    Surface 51B,             !- Name
    Wall,                    !- Surface Type
    HIBO CMU Veneer Exterior Wall,  !- Construction Name
    Thermal Zone: Plenum,    !- Zone Name
    ,                        !- Space Name
    Outdoors,                !- Outside Boundary Condition
    ,                        !- Outside Boundary Condition Object
    SunExposed,              !- Sun Exposure
    WindExposed,             !- Wind Exposure
    ,                        !- View Factor to Ground
    4,                       !- Number of Vertices
    9.171432,                !- Vertex 1 X-coordinate {m}
    6.912864,                !- Vertex 1 Y-coordinate {m}
    3.962400,                !- Vertex 1 Z-coordinate {m}
    9.171432,                !- Vertex 2 X-coordinate {m}
    6.912864,                !- Vertex 2 Y-coordinate {m}
    3.048000,                !- Vertex 2 Z-coordinate {m}
    4.532376,                !- Vertex 3 X-coordinate {m}
    6.912864,                !- Vertex 3 Y-coordinate {m}
    3.048000,                !- Vertex 3 Z-coordinate {m}
    4.532376,                !- Vertex 4 X-coordinate {m}
    6.912864,                !- Vertex 4 Y-coordinate {m}
    3.962400;                !- Vertex 4 Z-coordinate {m}


!-   ===========  ALL OBJECTS IN CLASS: FENESTRATIONSURFACE:DETAILED ===========

FenestrationSurface:Detailed,
    HIBO CWC LabB Vision,    !- Name
    Window,                  !- Surface Type
    EXT_Window_SN54,         !- Construction Name
    Surface 69 Ext,          !- Building Surface Name
    ,                        !- Outside Boundary Condition Object
    autocalculate,           !- View Factor to Ground
    HIBO CWC Vision Frame,   !- Frame and Divider Name
    1,                       !- Multiplier
    4,                       !- Number of Vertices
    0.200152,                !- Vertex 1 X-coordinate {m}
    0.000000,                !- Vertex 1 Y-coordinate {m}
    2.997200,                !- Vertex 1 Z-coordinate {m}
    0.200152,                !- Vertex 2 X-coordinate {m}
    0.000000,                !- Vertex 2 Y-coordinate {m}
    0.457200,                !- Vertex 2 Z-coordinate {m}
    3.756152,                !- Vertex 3 X-coordinate {m}
    0.000000,                !- Vertex 3 Y-coordinate {m}
    0.457200,                !- Vertex 3 Z-coordinate {m}
    3.756152,                !- Vertex 4 X-coordinate {m}
    0.000000,                !- Vertex 4 Y-coordinate {m}
    2.997200;                !- Vertex 4 Z-coordinate {m}

FenestrationSurface:Detailed,
    HIBO CWB Control Vision, !- Name
    Window,                  !- Surface Type
    EXT_Window_SN54,         !- Construction Name
    Surface 68 Ext,          !- Building Surface Name
    ,                        !- Outside Boundary Condition Object
    autocalculate,           !- View Factor to Ground
    HIBO CWB Vision Frame,   !- Frame and Divider Name
    1,                       !- Multiplier
    4,                       !- Number of Vertices
    4.941316,                !- Vertex 1 X-coordinate {m}
    0.000000,                !- Vertex 1 Y-coordinate {m}
    2.997200,                !- Vertex 1 Z-coordinate {m}
    4.941316,                !- Vertex 2 X-coordinate {m}
    0.000000,                !- Vertex 2 Y-coordinate {m}
    0.457200,                !- Vertex 2 Z-coordinate {m}
    6.058916,                !- Vertex 3 X-coordinate {m}
    0.000000,                !- Vertex 3 Y-coordinate {m}
    0.457200,                !- Vertex 3 Z-coordinate {m}
    6.058916,                !- Vertex 4 X-coordinate {m}
    0.000000,                !- Vertex 4 Y-coordinate {m}
    2.997200;                !- Vertex 4 Z-coordinate {m}

FenestrationSurface:Detailed,
    HIBO CWC LabA Vision,    !- Name
    Window,                  !- Surface Type
    EXT_Window_SN54,         !- Construction Name
    Surface 66 Ext,          !- Building Surface Name
    ,                        !- Outside Boundary Condition Object
    autocalculate,           !- View Factor to Ground
    HIBO CWC Vision Frame,   !- Frame and Divider Name
    1,                       !- Multiplier
    4,                       !- Number of Vertices
    7.244080,                !- Vertex 1 X-coordinate {m}
    0.000000,                !- Vertex 1 Y-coordinate {m}
    2.997200,                !- Vertex 1 Z-coordinate {m}
    7.244080,                !- Vertex 2 X-coordinate {m}
    0.000000,                !- Vertex 2 Y-coordinate {m}
    0.457200,                !- Vertex 2 Z-coordinate {m}
    10.800080,               !- Vertex 3 X-coordinate {m}
    0.000000,                !- Vertex 3 Y-coordinate {m}
    0.457200,                !- Vertex 3 Z-coordinate {m}
    10.800080,               !- Vertex 4 X-coordinate {m}
    0.000000,                !- Vertex 4 Y-coordinate {m}
    2.997200;                !- Vertex 4 Z-coordinate {m}

FenestrationSurface:Detailed,
    HIBO Door 103 Frame Top A,  !- Name
    Door,                    !- Surface Type
    HIBO Metal Frame Strip,  !- Construction Name
    Surface 5,               !- Building Surface Name
    HIBO Door 103 Frame Top B,  !- Outside Boundary Condition Object
    autocalculate,           !- View Factor to Ground
    ,                        !- Frame and Divider Name
    1,                       !- Multiplier
    4,                       !- Number of Vertices
    3.95630400,              !- Vertex 1 X-coordinate {m}
    3.58749600,              !- Vertex 1 Y-coordinate {m}
    2.18440000,              !- Vertex 1 Z-coordinate {m}
    3.95630400,              !- Vertex 2 X-coordinate {m}
    3.58749600,              !- Vertex 2 Y-coordinate {m}
    2.13360000,              !- Vertex 2 Z-coordinate {m}
    3.95630400,              !- Vertex 3 X-coordinate {m}
    4.60349600,              !- Vertex 3 Y-coordinate {m}
    2.13360000,              !- Vertex 3 Z-coordinate {m}
    3.95630400,              !- Vertex 4 X-coordinate {m}
    4.60349600,              !- Vertex 4 Y-coordinate {m}
    2.18440000;              !- Vertex 4 Z-coordinate {m}

FenestrationSurface:Detailed,
    HIBO Door 103 Frame Top B,  !- Name
    Door,                    !- Surface Type
    HIBO Metal Frame Strip,  !- Construction Name
    Surface 29,              !- Building Surface Name
    HIBO Door 103 Frame Top A,  !- Outside Boundary Condition Object
    autocalculate,           !- View Factor to Ground
    ,                        !- Frame and Divider Name
    1,                       !- Multiplier
    4,                       !- Number of Vertices
    3.95630400,              !- Vertex 1 X-coordinate {m}
    4.60349600,              !- Vertex 1 Y-coordinate {m}
    2.18440000,              !- Vertex 1 Z-coordinate {m}
    3.95630400,              !- Vertex 2 X-coordinate {m}
    4.60349600,              !- Vertex 2 Y-coordinate {m}
    2.13360000,              !- Vertex 2 Z-coordinate {m}
    3.95630400,              !- Vertex 3 X-coordinate {m}
    3.58749600,              !- Vertex 3 Y-coordinate {m}
    2.13360000,              !- Vertex 3 Z-coordinate {m}
    3.95630400,              !- Vertex 4 X-coordinate {m}
    3.58749600,              !- Vertex 4 Y-coordinate {m}
    2.18440000;              !- Vertex 4 Z-coordinate {m}

FenestrationSurface:Detailed,
    HIBO Door 103 Frame Left A,  !- Name
    Door,                    !- Surface Type
    HIBO Metal Frame Strip,  !- Construction Name
    Surface 5,               !- Building Surface Name
    HIBO Door 103 Frame Left B,  !- Outside Boundary Condition Object
    autocalculate,           !- View Factor to Ground
    ,                        !- Frame and Divider Name
    1,                       !- Multiplier
    4,                       !- Number of Vertices
    3.95630400,              !- Vertex 1 X-coordinate {m}
    3.58749600,              !- Vertex 1 Y-coordinate {m}
    2.13360000,              !- Vertex 1 Z-coordinate {m}
    3.95630400,              !- Vertex 2 X-coordinate {m}
    3.58749600,              !- Vertex 2 Y-coordinate {m}
    0.00000000,              !- Vertex 2 Z-coordinate {m}
    3.95630400,              !- Vertex 3 X-coordinate {m}
    3.63829600,              !- Vertex 3 Y-coordinate {m}
    0.00000000,              !- Vertex 3 Z-coordinate {m}
    3.95630400,              !- Vertex 4 X-coordinate {m}
    3.63829600,              !- Vertex 4 Y-coordinate {m}
    2.13360000;              !- Vertex 4 Z-coordinate {m}

FenestrationSurface:Detailed,
    HIBO Door 103 Frame Left B,  !- Name
    Door,                    !- Surface Type
    HIBO Metal Frame Strip,  !- Construction Name
    Surface 29,              !- Building Surface Name
    HIBO Door 103 Frame Left A,  !- Outside Boundary Condition Object
    autocalculate,           !- View Factor to Ground
    ,                        !- Frame and Divider Name
    1,                       !- Multiplier
    4,                       !- Number of Vertices
    3.95630400,              !- Vertex 1 X-coordinate {m}
    3.63829600,              !- Vertex 1 Y-coordinate {m}
    2.13360000,              !- Vertex 1 Z-coordinate {m}
    3.95630400,              !- Vertex 2 X-coordinate {m}
    3.63829600,              !- Vertex 2 Y-coordinate {m}
    0.00000000,              !- Vertex 2 Z-coordinate {m}
    3.95630400,              !- Vertex 3 X-coordinate {m}
    3.58749600,              !- Vertex 3 Y-coordinate {m}
    0.00000000,              !- Vertex 3 Z-coordinate {m}
    3.95630400,              !- Vertex 4 X-coordinate {m}
    3.58749600,              !- Vertex 4 Y-coordinate {m}
    2.13360000;              !- Vertex 4 Z-coordinate {m}

FenestrationSurface:Detailed,
    HIBO Door 103 Frame Right A,  !- Name
    Door,                    !- Surface Type
    HIBO Metal Frame Strip,  !- Construction Name
    Surface 5,               !- Building Surface Name
    HIBO Door 103 Frame Right B,  !- Outside Boundary Condition Object
    autocalculate,           !- View Factor to Ground
    ,                        !- Frame and Divider Name
    1,                       !- Multiplier
    4,                       !- Number of Vertices
    3.95630400,              !- Vertex 1 X-coordinate {m}
    4.55269600,              !- Vertex 1 Y-coordinate {m}
    2.13360000,              !- Vertex 1 Z-coordinate {m}
    3.95630400,              !- Vertex 2 X-coordinate {m}
    4.55269600,              !- Vertex 2 Y-coordinate {m}
    0.00000000,              !- Vertex 2 Z-coordinate {m}
    3.95630400,              !- Vertex 3 X-coordinate {m}
    4.60349600,              !- Vertex 3 Y-coordinate {m}
    0.00000000,              !- Vertex 3 Z-coordinate {m}
    3.95630400,              !- Vertex 4 X-coordinate {m}
    4.60349600,              !- Vertex 4 Y-coordinate {m}
    2.13360000;              !- Vertex 4 Z-coordinate {m}

FenestrationSurface:Detailed,
    HIBO Door 103 Frame Right B,  !- Name
    Door,                    !- Surface Type
    HIBO Metal Frame Strip,  !- Construction Name
    Surface 29,              !- Building Surface Name
    HIBO Door 103 Frame Right A,  !- Outside Boundary Condition Object
    autocalculate,           !- View Factor to Ground
    ,                        !- Frame and Divider Name
    1,                       !- Multiplier
    4,                       !- Number of Vertices
    3.95630400,              !- Vertex 1 X-coordinate {m}
    4.60349600,              !- Vertex 1 Y-coordinate {m}
    2.13360000,              !- Vertex 1 Z-coordinate {m}
    3.95630400,              !- Vertex 2 X-coordinate {m}
    4.60349600,              !- Vertex 2 Y-coordinate {m}
    0.00000000,              !- Vertex 2 Z-coordinate {m}
    3.95630400,              !- Vertex 3 X-coordinate {m}
    4.55269600,              !- Vertex 3 Y-coordinate {m}
    0.00000000,              !- Vertex 3 Z-coordinate {m}
    3.95630400,              !- Vertex 4 X-coordinate {m}
    4.55269600,              !- Vertex 4 Y-coordinate {m}
    2.13360000;              !- Vertex 4 Z-coordinate {m}

FenestrationSurface:Detailed,
    HIBO Door 103 Leaf Bottom A,  !- Name
    Door,                    !- Surface Type
    HIBO HM Door 1-3-4in,    !- Construction Name
    Surface 5,               !- Building Surface Name
    HIBO Door 103 Leaf Bottom B,  !- Outside Boundary Condition Object
    autocalculate,           !- View Factor to Ground
    ,                        !- Frame and Divider Name
    1,                       !- Multiplier
    4,                       !- Number of Vertices
    3.95630400,              !- Vertex 1 X-coordinate {m}
    3.63829600,              !- Vertex 1 Y-coordinate {m}
    1.06680000,              !- Vertex 1 Z-coordinate {m}
    3.95630400,              !- Vertex 2 X-coordinate {m}
    3.63829600,              !- Vertex 2 Y-coordinate {m}
    0.00000000,              !- Vertex 2 Z-coordinate {m}
    3.95630400,              !- Vertex 3 X-coordinate {m}
    4.55269600,              !- Vertex 3 Y-coordinate {m}
    0.00000000,              !- Vertex 3 Z-coordinate {m}
    3.95630400,              !- Vertex 4 X-coordinate {m}
    4.55269600,              !- Vertex 4 Y-coordinate {m}
    1.06680000;              !- Vertex 4 Z-coordinate {m}

FenestrationSurface:Detailed,
    HIBO Door 103 Leaf Bottom B,  !- Name
    Door,                    !- Surface Type
    HIBO HM Door 1-3-4in,    !- Construction Name
    Surface 29,              !- Building Surface Name
    HIBO Door 103 Leaf Bottom A,  !- Outside Boundary Condition Object
    autocalculate,           !- View Factor to Ground
    ,                        !- Frame and Divider Name
    1,                       !- Multiplier
    4,                       !- Number of Vertices
    3.95630400,              !- Vertex 1 X-coordinate {m}
    4.55269600,              !- Vertex 1 Y-coordinate {m}
    1.06680000,              !- Vertex 1 Z-coordinate {m}
    3.95630400,              !- Vertex 2 X-coordinate {m}
    4.55269600,              !- Vertex 2 Y-coordinate {m}
    0.00000000,              !- Vertex 2 Z-coordinate {m}
    3.95630400,              !- Vertex 3 X-coordinate {m}
    3.63829600,              !- Vertex 3 Y-coordinate {m}
    0.00000000,              !- Vertex 3 Z-coordinate {m}
    3.95630400,              !- Vertex 4 X-coordinate {m}
    3.63829600,              !- Vertex 4 Y-coordinate {m}
    1.06680000;              !- Vertex 4 Z-coordinate {m}

FenestrationSurface:Detailed,
    HIBO Door 103 Leaf Top A,!- Name
    Door,                    !- Surface Type
    HIBO HM Door 1-3-4in,    !- Construction Name
    Surface 5,               !- Building Surface Name
    HIBO Door 103 Leaf Top B,!- Outside Boundary Condition Object
    autocalculate,           !- View Factor to Ground
    ,                        !- Frame and Divider Name
    1,                       !- Multiplier
    4,                       !- Number of Vertices
    3.95630400,              !- Vertex 1 X-coordinate {m}
    3.63829600,              !- Vertex 1 Y-coordinate {m}
    2.13360000,              !- Vertex 1 Z-coordinate {m}
    3.95630400,              !- Vertex 2 X-coordinate {m}
    3.63829600,              !- Vertex 2 Y-coordinate {m}
    1.98120000,              !- Vertex 2 Z-coordinate {m}
    3.95630400,              !- Vertex 3 X-coordinate {m}
    4.55269600,              !- Vertex 3 Y-coordinate {m}
    1.98120000,              !- Vertex 3 Z-coordinate {m}
    3.95630400,              !- Vertex 4 X-coordinate {m}
    4.55269600,              !- Vertex 4 Y-coordinate {m}
    2.13360000;              !- Vertex 4 Z-coordinate {m}

FenestrationSurface:Detailed,
    HIBO Door 103 Leaf Top B,!- Name
    Door,                    !- Surface Type
    HIBO HM Door 1-3-4in,    !- Construction Name
    Surface 29,              !- Building Surface Name
    HIBO Door 103 Leaf Top A,!- Outside Boundary Condition Object
    autocalculate,           !- View Factor to Ground
    ,                        !- Frame and Divider Name
    1,                       !- Multiplier
    4,                       !- Number of Vertices
    3.95630400,              !- Vertex 1 X-coordinate {m}
    4.55269600,              !- Vertex 1 Y-coordinate {m}
    2.13360000,              !- Vertex 1 Z-coordinate {m}
    3.95630400,              !- Vertex 2 X-coordinate {m}
    4.55269600,              !- Vertex 2 Y-coordinate {m}
    1.98120000,              !- Vertex 2 Z-coordinate {m}
    3.95630400,              !- Vertex 3 X-coordinate {m}
    3.63829600,              !- Vertex 3 Y-coordinate {m}
    1.98120000,              !- Vertex 3 Z-coordinate {m}
    3.95630400,              !- Vertex 4 X-coordinate {m}
    3.63829600,              !- Vertex 4 Y-coordinate {m}
    2.13360000;              !- Vertex 4 Z-coordinate {m}

FenestrationSurface:Detailed,
    HIBO Door 103 Leaf Left A,  !- Name
    Door,                    !- Surface Type
    HIBO HM Door 1-3-4in,    !- Construction Name
    Surface 5,               !- Building Surface Name
    HIBO Door 103 Leaf Left B,  !- Outside Boundary Condition Object
    autocalculate,           !- View Factor to Ground
    ,                        !- Frame and Divider Name
    1,                       !- Multiplier
    4,                       !- Number of Vertices
    3.95630400,              !- Vertex 1 X-coordinate {m}
    3.63829600,              !- Vertex 1 Y-coordinate {m}
    1.98120000,              !- Vertex 1 Z-coordinate {m}
    3.95630400,              !- Vertex 2 X-coordinate {m}
    3.63829600,              !- Vertex 2 Y-coordinate {m}
    1.06680000,              !- Vertex 2 Z-coordinate {m}
    3.95630400,              !- Vertex 3 X-coordinate {m}
    3.79069600,              !- Vertex 3 Y-coordinate {m}
    1.06680000,              !- Vertex 3 Z-coordinate {m}
    3.95630400,              !- Vertex 4 X-coordinate {m}
    3.79069600,              !- Vertex 4 Y-coordinate {m}
    1.98120000;              !- Vertex 4 Z-coordinate {m}

FenestrationSurface:Detailed,
    HIBO Door 103 Leaf Left B,  !- Name
    Door,                    !- Surface Type
    HIBO HM Door 1-3-4in,    !- Construction Name
    Surface 29,              !- Building Surface Name
    HIBO Door 103 Leaf Left A,  !- Outside Boundary Condition Object
    autocalculate,           !- View Factor to Ground
    ,                        !- Frame and Divider Name
    1,                       !- Multiplier
    4,                       !- Number of Vertices
    3.95630400,              !- Vertex 1 X-coordinate {m}
    3.79069600,              !- Vertex 1 Y-coordinate {m}
    1.98120000,              !- Vertex 1 Z-coordinate {m}
    3.95630400,              !- Vertex 2 X-coordinate {m}
    3.79069600,              !- Vertex 2 Y-coordinate {m}
    1.06680000,              !- Vertex 2 Z-coordinate {m}
    3.95630400,              !- Vertex 3 X-coordinate {m}
    3.63829600,              !- Vertex 3 Y-coordinate {m}
    1.06680000,              !- Vertex 3 Z-coordinate {m}
    3.95630400,              !- Vertex 4 X-coordinate {m}
    3.63829600,              !- Vertex 4 Y-coordinate {m}
    1.98120000;              !- Vertex 4 Z-coordinate {m}

FenestrationSurface:Detailed,
    HIBO Door 103 Leaf Right A,  !- Name
    Door,                    !- Surface Type
    HIBO HM Door 1-3-4in,    !- Construction Name
    Surface 5,               !- Building Surface Name
    HIBO Door 103 Leaf Right B,  !- Outside Boundary Condition Object
    autocalculate,           !- View Factor to Ground
    ,                        !- Frame and Divider Name
    1,                       !- Multiplier
    4,                       !- Number of Vertices
    3.95630400,              !- Vertex 1 X-coordinate {m}
    4.40029600,              !- Vertex 1 Y-coordinate {m}
    1.98120000,              !- Vertex 1 Z-coordinate {m}
    3.95630400,              !- Vertex 2 X-coordinate {m}
    4.40029600,              !- Vertex 2 Y-coordinate {m}
    1.06680000,              !- Vertex 2 Z-coordinate {m}
    3.95630400,              !- Vertex 3 X-coordinate {m}
    4.55269600,              !- Vertex 3 Y-coordinate {m}
    1.06680000,              !- Vertex 3 Z-coordinate {m}
    3.95630400,              !- Vertex 4 X-coordinate {m}
    4.55269600,              !- Vertex 4 Y-coordinate {m}
    1.98120000;              !- Vertex 4 Z-coordinate {m}

FenestrationSurface:Detailed,
    HIBO Door 103 Leaf Right B,  !- Name
    Door,                    !- Surface Type
    HIBO HM Door 1-3-4in,    !- Construction Name
    Surface 29,              !- Building Surface Name
    HIBO Door 103 Leaf Right A,  !- Outside Boundary Condition Object
    autocalculate,           !- View Factor to Ground
    ,                        !- Frame and Divider Name
    1,                       !- Multiplier
    4,                       !- Number of Vertices
    3.95630400,              !- Vertex 1 X-coordinate {m}
    4.55269600,              !- Vertex 1 Y-coordinate {m}
    1.98120000,              !- Vertex 1 Z-coordinate {m}
    3.95630400,              !- Vertex 2 X-coordinate {m}
    4.55269600,              !- Vertex 2 Y-coordinate {m}
    1.06680000,              !- Vertex 2 Z-coordinate {m}
    3.95630400,              !- Vertex 3 X-coordinate {m}
    4.40029600,              !- Vertex 3 Y-coordinate {m}
    1.06680000,              !- Vertex 3 Z-coordinate {m}
    3.95630400,              !- Vertex 4 X-coordinate {m}
    4.40029600,              !- Vertex 4 Y-coordinate {m}
    1.98120000;              !- Vertex 4 Z-coordinate {m}

FenestrationSurface:Detailed,
    HIBO Door 103 CTG Lite A,!- Name
    Window,                  !- Surface Type
    HIBO Interior CTG,       !- Construction Name
    Surface 5,               !- Building Surface Name
    HIBO Door 103 CTG Lite B,!- Outside Boundary Condition Object
    autocalculate,           !- View Factor to Ground
    ,                        !- Frame and Divider Name
    1,                       !- Multiplier
    4,                       !- Number of Vertices
    3.95630400,              !- Vertex 1 X-coordinate {m}
    3.79069600,              !- Vertex 1 Y-coordinate {m}
    1.98120000,              !- Vertex 1 Z-coordinate {m}
    3.95630400,              !- Vertex 2 X-coordinate {m}
    3.79069600,              !- Vertex 2 Y-coordinate {m}
    1.06680000,              !- Vertex 2 Z-coordinate {m}
    3.95630400,              !- Vertex 3 X-coordinate {m}
    4.40029600,              !- Vertex 3 Y-coordinate {m}
    1.06680000,              !- Vertex 3 Z-coordinate {m}
    3.95630400,              !- Vertex 4 X-coordinate {m}
    4.40029600,              !- Vertex 4 Y-coordinate {m}
    1.98120000;              !- Vertex 4 Z-coordinate {m}

FenestrationSurface:Detailed,
    HIBO Door 103 CTG Lite B,!- Name
    Window,                  !- Surface Type
    HIBO Interior CTG,       !- Construction Name
    Surface 29,              !- Building Surface Name
    HIBO Door 103 CTG Lite A,!- Outside Boundary Condition Object
    autocalculate,           !- View Factor to Ground
    ,                        !- Frame and Divider Name
    1,                       !- Multiplier
    4,                       !- Number of Vertices
    3.95630400,              !- Vertex 1 X-coordinate {m}
    4.40029600,              !- Vertex 1 Y-coordinate {m}
    1.98120000,              !- Vertex 1 Z-coordinate {m}
    3.95630400,              !- Vertex 2 X-coordinate {m}
    4.40029600,              !- Vertex 2 Y-coordinate {m}
    1.06680000,              !- Vertex 2 Z-coordinate {m}
    3.95630400,              !- Vertex 3 X-coordinate {m}
    3.79069600,              !- Vertex 3 Y-coordinate {m}
    1.06680000,              !- Vertex 3 Z-coordinate {m}
    3.95630400,              !- Vertex 4 X-coordinate {m}
    3.79069600,              !- Vertex 4 Y-coordinate {m}
    1.98120000;              !- Vertex 4 Z-coordinate {m}

FenestrationSurface:Detailed,
    HIBO Door 105 Frame Top A,  !- Name
    Door,                    !- Surface Type
    HIBO Metal Frame Strip,  !- Construction Name
    Surface 21,              !- Building Surface Name
    HIBO Door 105 Frame Top B,  !- Outside Boundary Condition Object
    autocalculate,           !- View Factor to Ground
    ,                        !- Frame and Divider Name
    1,                       !- Multiplier
    4,                       !- Number of Vertices
    7.04392800,              !- Vertex 1 X-coordinate {m}
    4.60349600,              !- Vertex 1 Y-coordinate {m}
    2.18440000,              !- Vertex 1 Z-coordinate {m}
    7.04392800,              !- Vertex 2 X-coordinate {m}
    4.60349600,              !- Vertex 2 Y-coordinate {m}
    2.13360000,              !- Vertex 2 Z-coordinate {m}
    7.04392800,              !- Vertex 3 X-coordinate {m}
    3.58749600,              !- Vertex 3 Y-coordinate {m}
    2.13360000,              !- Vertex 3 Z-coordinate {m}
    7.04392800,              !- Vertex 4 X-coordinate {m}
    3.58749600,              !- Vertex 4 Y-coordinate {m}
    2.18440000;              !- Vertex 4 Z-coordinate {m}

FenestrationSurface:Detailed,
    HIBO Door 105 Frame Top B,  !- Name
    Door,                    !- Surface Type
    HIBO Metal Frame Strip,  !- Construction Name
    Surface 27,              !- Building Surface Name
    HIBO Door 105 Frame Top A,  !- Outside Boundary Condition Object
    autocalculate,           !- View Factor to Ground
    ,                        !- Frame and Divider Name
    1,                       !- Multiplier
    4,                       !- Number of Vertices
    7.04392800,              !- Vertex 1 X-coordinate {m}
    3.58749600,              !- Vertex 1 Y-coordinate {m}
    2.18440000,              !- Vertex 1 Z-coordinate {m}
    7.04392800,              !- Vertex 2 X-coordinate {m}
    3.58749600,              !- Vertex 2 Y-coordinate {m}
    2.13360000,              !- Vertex 2 Z-coordinate {m}
    7.04392800,              !- Vertex 3 X-coordinate {m}
    4.60349600,              !- Vertex 3 Y-coordinate {m}
    2.13360000,              !- Vertex 3 Z-coordinate {m}
    7.04392800,              !- Vertex 4 X-coordinate {m}
    4.60349600,              !- Vertex 4 Y-coordinate {m}
    2.18440000;              !- Vertex 4 Z-coordinate {m}

FenestrationSurface:Detailed,
    HIBO Door 105 Frame Left A,  !- Name
    Door,                    !- Surface Type
    HIBO Metal Frame Strip,  !- Construction Name
    Surface 21,              !- Building Surface Name
    HIBO Door 105 Frame Left B,  !- Outside Boundary Condition Object
    autocalculate,           !- View Factor to Ground
    ,                        !- Frame and Divider Name
    1,                       !- Multiplier
    4,                       !- Number of Vertices
    7.04392800,              !- Vertex 1 X-coordinate {m}
    3.63829600,              !- Vertex 1 Y-coordinate {m}
    2.13360000,              !- Vertex 1 Z-coordinate {m}
    7.04392800,              !- Vertex 2 X-coordinate {m}
    3.63829600,              !- Vertex 2 Y-coordinate {m}
    0.00000000,              !- Vertex 2 Z-coordinate {m}
    7.04392800,              !- Vertex 3 X-coordinate {m}
    3.58749600,              !- Vertex 3 Y-coordinate {m}
    0.00000000,              !- Vertex 3 Z-coordinate {m}
    7.04392800,              !- Vertex 4 X-coordinate {m}
    3.58749600,              !- Vertex 4 Y-coordinate {m}
    2.13360000;              !- Vertex 4 Z-coordinate {m}

FenestrationSurface:Detailed,
    HIBO Door 105 Frame Left B,  !- Name
    Door,                    !- Surface Type
    HIBO Metal Frame Strip,  !- Construction Name
    Surface 27,              !- Building Surface Name
    HIBO Door 105 Frame Left A,  !- Outside Boundary Condition Object
    autocalculate,           !- View Factor to Ground
    ,                        !- Frame and Divider Name
    1,                       !- Multiplier
    4,                       !- Number of Vertices
    7.04392800,              !- Vertex 1 X-coordinate {m}
    3.58749600,              !- Vertex 1 Y-coordinate {m}
    2.13360000,              !- Vertex 1 Z-coordinate {m}
    7.04392800,              !- Vertex 2 X-coordinate {m}
    3.58749600,              !- Vertex 2 Y-coordinate {m}
    0.00000000,              !- Vertex 2 Z-coordinate {m}
    7.04392800,              !- Vertex 3 X-coordinate {m}
    3.63829600,              !- Vertex 3 Y-coordinate {m}
    0.00000000,              !- Vertex 3 Z-coordinate {m}
    7.04392800,              !- Vertex 4 X-coordinate {m}
    3.63829600,              !- Vertex 4 Y-coordinate {m}
    2.13360000;              !- Vertex 4 Z-coordinate {m}

FenestrationSurface:Detailed,
    HIBO Door 105 Frame Right A,  !- Name
    Door,                    !- Surface Type
    HIBO Metal Frame Strip,  !- Construction Name
    Surface 21,              !- Building Surface Name
    HIBO Door 105 Frame Right B,  !- Outside Boundary Condition Object
    autocalculate,           !- View Factor to Ground
    ,                        !- Frame and Divider Name
    1,                       !- Multiplier
    4,                       !- Number of Vertices
    7.04392800,              !- Vertex 1 X-coordinate {m}
    4.60349600,              !- Vertex 1 Y-coordinate {m}
    2.13360000,              !- Vertex 1 Z-coordinate {m}
    7.04392800,              !- Vertex 2 X-coordinate {m}
    4.60349600,              !- Vertex 2 Y-coordinate {m}
    0.00000000,              !- Vertex 2 Z-coordinate {m}
    7.04392800,              !- Vertex 3 X-coordinate {m}
    4.55269600,              !- Vertex 3 Y-coordinate {m}
    0.00000000,              !- Vertex 3 Z-coordinate {m}
    7.04392800,              !- Vertex 4 X-coordinate {m}
    4.55269600,              !- Vertex 4 Y-coordinate {m}
    2.13360000;              !- Vertex 4 Z-coordinate {m}

FenestrationSurface:Detailed,
    HIBO Door 105 Frame Right B,  !- Name
    Door,                    !- Surface Type
    HIBO Metal Frame Strip,  !- Construction Name
    Surface 27,              !- Building Surface Name
    HIBO Door 105 Frame Right A,  !- Outside Boundary Condition Object
    autocalculate,           !- View Factor to Ground
    ,                        !- Frame and Divider Name
    1,                       !- Multiplier
    4,                       !- Number of Vertices
    7.04392800,              !- Vertex 1 X-coordinate {m}
    4.55269600,              !- Vertex 1 Y-coordinate {m}
    2.13360000,              !- Vertex 1 Z-coordinate {m}
    7.04392800,              !- Vertex 2 X-coordinate {m}
    4.55269600,              !- Vertex 2 Y-coordinate {m}
    0.00000000,              !- Vertex 2 Z-coordinate {m}
    7.04392800,              !- Vertex 3 X-coordinate {m}
    4.60349600,              !- Vertex 3 Y-coordinate {m}
    0.00000000,              !- Vertex 3 Z-coordinate {m}
    7.04392800,              !- Vertex 4 X-coordinate {m}
    4.60349600,              !- Vertex 4 Y-coordinate {m}
    2.13360000;              !- Vertex 4 Z-coordinate {m}

FenestrationSurface:Detailed,
    HIBO Door 105 Leaf Bottom A,  !- Name
    Door,                    !- Surface Type
    HIBO HM Door 1-3-4in,    !- Construction Name
    Surface 21,              !- Building Surface Name
    HIBO Door 105 Leaf Bottom B,  !- Outside Boundary Condition Object
    autocalculate,           !- View Factor to Ground
    ,                        !- Frame and Divider Name
    1,                       !- Multiplier
    4,                       !- Number of Vertices
    7.04392800,              !- Vertex 1 X-coordinate {m}
    4.55269600,              !- Vertex 1 Y-coordinate {m}
    1.06680000,              !- Vertex 1 Z-coordinate {m}
    7.04392800,              !- Vertex 2 X-coordinate {m}
    4.55269600,              !- Vertex 2 Y-coordinate {m}
    0.00000000,              !- Vertex 2 Z-coordinate {m}
    7.04392800,              !- Vertex 3 X-coordinate {m}
    3.63829600,              !- Vertex 3 Y-coordinate {m}
    0.00000000,              !- Vertex 3 Z-coordinate {m}
    7.04392800,              !- Vertex 4 X-coordinate {m}
    3.63829600,              !- Vertex 4 Y-coordinate {m}
    1.06680000;              !- Vertex 4 Z-coordinate {m}

FenestrationSurface:Detailed,
    HIBO Door 105 Leaf Bottom B,  !- Name
    Door,                    !- Surface Type
    HIBO HM Door 1-3-4in,    !- Construction Name
    Surface 27,              !- Building Surface Name
    HIBO Door 105 Leaf Bottom A,  !- Outside Boundary Condition Object
    autocalculate,           !- View Factor to Ground
    ,                        !- Frame and Divider Name
    1,                       !- Multiplier
    4,                       !- Number of Vertices
    7.04392800,              !- Vertex 1 X-coordinate {m}
    3.63829600,              !- Vertex 1 Y-coordinate {m}
    1.06680000,              !- Vertex 1 Z-coordinate {m}
    7.04392800,              !- Vertex 2 X-coordinate {m}
    3.63829600,              !- Vertex 2 Y-coordinate {m}
    0.00000000,              !- Vertex 2 Z-coordinate {m}
    7.04392800,              !- Vertex 3 X-coordinate {m}
    4.55269600,              !- Vertex 3 Y-coordinate {m}
    0.00000000,              !- Vertex 3 Z-coordinate {m}
    7.04392800,              !- Vertex 4 X-coordinate {m}
    4.55269600,              !- Vertex 4 Y-coordinate {m}
    1.06680000;              !- Vertex 4 Z-coordinate {m}

FenestrationSurface:Detailed,
    HIBO Door 105 Leaf Top A,!- Name
    Door,                    !- Surface Type
    HIBO HM Door 1-3-4in,    !- Construction Name
    Surface 21,              !- Building Surface Name
    HIBO Door 105 Leaf Top B,!- Outside Boundary Condition Object
    autocalculate,           !- View Factor to Ground
    ,                        !- Frame and Divider Name
    1,                       !- Multiplier
    4,                       !- Number of Vertices
    7.04392800,              !- Vertex 1 X-coordinate {m}
    4.55269600,              !- Vertex 1 Y-coordinate {m}
    2.13360000,              !- Vertex 1 Z-coordinate {m}
    7.04392800,              !- Vertex 2 X-coordinate {m}
    4.55269600,              !- Vertex 2 Y-coordinate {m}
    1.98120000,              !- Vertex 2 Z-coordinate {m}
    7.04392800,              !- Vertex 3 X-coordinate {m}
    3.63829600,              !- Vertex 3 Y-coordinate {m}
    1.98120000,              !- Vertex 3 Z-coordinate {m}
    7.04392800,              !- Vertex 4 X-coordinate {m}
    3.63829600,              !- Vertex 4 Y-coordinate {m}
    2.13360000;              !- Vertex 4 Z-coordinate {m}

FenestrationSurface:Detailed,
    HIBO Door 105 Leaf Top B,!- Name
    Door,                    !- Surface Type
    HIBO HM Door 1-3-4in,    !- Construction Name
    Surface 27,              !- Building Surface Name
    HIBO Door 105 Leaf Top A,!- Outside Boundary Condition Object
    autocalculate,           !- View Factor to Ground
    ,                        !- Frame and Divider Name
    1,                       !- Multiplier
    4,                       !- Number of Vertices
    7.04392800,              !- Vertex 1 X-coordinate {m}
    3.63829600,              !- Vertex 1 Y-coordinate {m}
    2.13360000,              !- Vertex 1 Z-coordinate {m}
    7.04392800,              !- Vertex 2 X-coordinate {m}
    3.63829600,              !- Vertex 2 Y-coordinate {m}
    1.98120000,              !- Vertex 2 Z-coordinate {m}
    7.04392800,              !- Vertex 3 X-coordinate {m}
    4.55269600,              !- Vertex 3 Y-coordinate {m}
    1.98120000,              !- Vertex 3 Z-coordinate {m}
    7.04392800,              !- Vertex 4 X-coordinate {m}
    4.55269600,              !- Vertex 4 Y-coordinate {m}
    2.13360000;              !- Vertex 4 Z-coordinate {m}

FenestrationSurface:Detailed,
    HIBO Door 105 Leaf Left A,  !- Name
    Door,                    !- Surface Type
    HIBO HM Door 1-3-4in,    !- Construction Name
    Surface 21,              !- Building Surface Name
    HIBO Door 105 Leaf Left B,  !- Outside Boundary Condition Object
    autocalculate,           !- View Factor to Ground
    ,                        !- Frame and Divider Name
    1,                       !- Multiplier
    4,                       !- Number of Vertices
    7.04392800,              !- Vertex 1 X-coordinate {m}
    3.79069600,              !- Vertex 1 Y-coordinate {m}
    1.98120000,              !- Vertex 1 Z-coordinate {m}
    7.04392800,              !- Vertex 2 X-coordinate {m}
    3.79069600,              !- Vertex 2 Y-coordinate {m}
    1.06680000,              !- Vertex 2 Z-coordinate {m}
    7.04392800,              !- Vertex 3 X-coordinate {m}
    3.63829600,              !- Vertex 3 Y-coordinate {m}
    1.06680000,              !- Vertex 3 Z-coordinate {m}
    7.04392800,              !- Vertex 4 X-coordinate {m}
    3.63829600,              !- Vertex 4 Y-coordinate {m}
    1.98120000;              !- Vertex 4 Z-coordinate {m}

FenestrationSurface:Detailed,
    HIBO Door 105 Leaf Left B,  !- Name
    Door,                    !- Surface Type
    HIBO HM Door 1-3-4in,    !- Construction Name
    Surface 27,              !- Building Surface Name
    HIBO Door 105 Leaf Left A,  !- Outside Boundary Condition Object
    autocalculate,           !- View Factor to Ground
    ,                        !- Frame and Divider Name
    1,                       !- Multiplier
    4,                       !- Number of Vertices
    7.04392800,              !- Vertex 1 X-coordinate {m}
    3.63829600,              !- Vertex 1 Y-coordinate {m}
    1.98120000,              !- Vertex 1 Z-coordinate {m}
    7.04392800,              !- Vertex 2 X-coordinate {m}
    3.63829600,              !- Vertex 2 Y-coordinate {m}
    1.06680000,              !- Vertex 2 Z-coordinate {m}
    7.04392800,              !- Vertex 3 X-coordinate {m}
    3.79069600,              !- Vertex 3 Y-coordinate {m}
    1.06680000,              !- Vertex 3 Z-coordinate {m}
    7.04392800,              !- Vertex 4 X-coordinate {m}
    3.79069600,              !- Vertex 4 Y-coordinate {m}
    1.98120000;              !- Vertex 4 Z-coordinate {m}

FenestrationSurface:Detailed,
    HIBO Door 105 Leaf Right A,  !- Name
    Door,                    !- Surface Type
    HIBO HM Door 1-3-4in,    !- Construction Name
    Surface 21,              !- Building Surface Name
    HIBO Door 105 Leaf Right B,  !- Outside Boundary Condition Object
    autocalculate,           !- View Factor to Ground
    ,                        !- Frame and Divider Name
    1,                       !- Multiplier
    4,                       !- Number of Vertices
    7.04392800,              !- Vertex 1 X-coordinate {m}
    4.55269600,              !- Vertex 1 Y-coordinate {m}
    1.98120000,              !- Vertex 1 Z-coordinate {m}
    7.04392800,              !- Vertex 2 X-coordinate {m}
    4.55269600,              !- Vertex 2 Y-coordinate {m}
    1.06680000,              !- Vertex 2 Z-coordinate {m}
    7.04392800,              !- Vertex 3 X-coordinate {m}
    4.40029600,              !- Vertex 3 Y-coordinate {m}
    1.06680000,              !- Vertex 3 Z-coordinate {m}
    7.04392800,              !- Vertex 4 X-coordinate {m}
    4.40029600,              !- Vertex 4 Y-coordinate {m}
    1.98120000;              !- Vertex 4 Z-coordinate {m}

FenestrationSurface:Detailed,
    HIBO Door 105 Leaf Right B,  !- Name
    Door,                    !- Surface Type
    HIBO HM Door 1-3-4in,    !- Construction Name
    Surface 27,              !- Building Surface Name
    HIBO Door 105 Leaf Right A,  !- Outside Boundary Condition Object
    autocalculate,           !- View Factor to Ground
    ,                        !- Frame and Divider Name
    1,                       !- Multiplier
    4,                       !- Number of Vertices
    7.04392800,              !- Vertex 1 X-coordinate {m}
    4.40029600,              !- Vertex 1 Y-coordinate {m}
    1.98120000,              !- Vertex 1 Z-coordinate {m}
    7.04392800,              !- Vertex 2 X-coordinate {m}
    4.40029600,              !- Vertex 2 Y-coordinate {m}
    1.06680000,              !- Vertex 2 Z-coordinate {m}
    7.04392800,              !- Vertex 3 X-coordinate {m}
    4.55269600,              !- Vertex 3 Y-coordinate {m}
    1.06680000,              !- Vertex 3 Z-coordinate {m}
    7.04392800,              !- Vertex 4 X-coordinate {m}
    4.55269600,              !- Vertex 4 Y-coordinate {m}
    1.98120000;              !- Vertex 4 Z-coordinate {m}

FenestrationSurface:Detailed,
    HIBO Door 105 CTG Lite A,!- Name
    Window,                  !- Surface Type
    HIBO Interior CTG,       !- Construction Name
    Surface 21,              !- Building Surface Name
    HIBO Door 105 CTG Lite B,!- Outside Boundary Condition Object
    autocalculate,           !- View Factor to Ground
    ,                        !- Frame and Divider Name
    1,                       !- Multiplier
    4,                       !- Number of Vertices
    7.04392800,              !- Vertex 1 X-coordinate {m}
    4.40029600,              !- Vertex 1 Y-coordinate {m}
    1.98120000,              !- Vertex 1 Z-coordinate {m}
    7.04392800,              !- Vertex 2 X-coordinate {m}
    4.40029600,              !- Vertex 2 Y-coordinate {m}
    1.06680000,              !- Vertex 2 Z-coordinate {m}
    7.04392800,              !- Vertex 3 X-coordinate {m}
    3.79069600,              !- Vertex 3 Y-coordinate {m}
    1.06680000,              !- Vertex 3 Z-coordinate {m}
    7.04392800,              !- Vertex 4 X-coordinate {m}
    3.79069600,              !- Vertex 4 Y-coordinate {m}
    1.98120000;              !- Vertex 4 Z-coordinate {m}

FenestrationSurface:Detailed,
    HIBO Door 105 CTG Lite B,!- Name
    Window,                  !- Surface Type
    HIBO Interior CTG,       !- Construction Name
    Surface 27,              !- Building Surface Name
    HIBO Door 105 CTG Lite A,!- Outside Boundary Condition Object
    autocalculate,           !- View Factor to Ground
    ,                        !- Frame and Divider Name
    1,                       !- Multiplier
    4,                       !- Number of Vertices
    7.04392800,              !- Vertex 1 X-coordinate {m}
    3.79069600,              !- Vertex 1 Y-coordinate {m}
    1.98120000,              !- Vertex 1 Z-coordinate {m}
    7.04392800,              !- Vertex 2 X-coordinate {m}
    3.79069600,              !- Vertex 2 Y-coordinate {m}
    1.06680000,              !- Vertex 2 Z-coordinate {m}
    7.04392800,              !- Vertex 3 X-coordinate {m}
    4.40029600,              !- Vertex 3 Y-coordinate {m}
    1.06680000,              !- Vertex 3 Z-coordinate {m}
    7.04392800,              !- Vertex 4 X-coordinate {m}
    4.40029600,              !- Vertex 4 Y-coordinate {m}
    1.98120000;              !- Vertex 4 Z-coordinate {m}

FenestrationSurface:Detailed,
    HIBO Door 106 Frame Top A,  !- Name
    Door,                    !- Surface Type
    HIBO Metal Frame Strip,  !- Construction Name
    Surface 25,              !- Building Surface Name
    HIBO Door 106 Frame Top B,  !- Outside Boundary Condition Object
    autocalculate,           !- View Factor to Ground
    ,                        !- Frame and Divider Name
    1,                       !- Multiplier
    4,                       !- Number of Vertices
    6.31240800,              !- Vertex 1 X-coordinate {m}
    5.84606400,              !- Vertex 1 Y-coordinate {m}
    2.18440000,              !- Vertex 1 Z-coordinate {m}
    6.31240800,              !- Vertex 2 X-coordinate {m}
    5.84606400,              !- Vertex 2 Y-coordinate {m}
    2.13360000,              !- Vertex 2 Z-coordinate {m}
    6.31240800,              !- Vertex 3 X-coordinate {m}
    6.86206400,              !- Vertex 3 Y-coordinate {m}
    2.13360000,              !- Vertex 3 Z-coordinate {m}
    6.31240800,              !- Vertex 4 X-coordinate {m}
    6.86206400,              !- Vertex 4 Y-coordinate {m}
    2.18440000;              !- Vertex 4 Z-coordinate {m}

FenestrationSurface:Detailed,
    HIBO Door 106 Frame Top B,  !- Name
    Door,                    !- Surface Type
    HIBO Metal Frame Strip,  !- Construction Name
    Surface 45,              !- Building Surface Name
    HIBO Door 106 Frame Top A,  !- Outside Boundary Condition Object
    autocalculate,           !- View Factor to Ground
    ,                        !- Frame and Divider Name
    1,                       !- Multiplier
    4,                       !- Number of Vertices
    6.31240800,              !- Vertex 1 X-coordinate {m}
    6.86206400,              !- Vertex 1 Y-coordinate {m}
    2.18440000,              !- Vertex 1 Z-coordinate {m}
    6.31240800,              !- Vertex 2 X-coordinate {m}
    6.86206400,              !- Vertex 2 Y-coordinate {m}
    2.13360000,              !- Vertex 2 Z-coordinate {m}
    6.31240800,              !- Vertex 3 X-coordinate {m}
    5.84606400,              !- Vertex 3 Y-coordinate {m}
    2.13360000,              !- Vertex 3 Z-coordinate {m}
    6.31240800,              !- Vertex 4 X-coordinate {m}
    5.84606400,              !- Vertex 4 Y-coordinate {m}
    2.18440000;              !- Vertex 4 Z-coordinate {m}

FenestrationSurface:Detailed,
    HIBO Door 106 Frame Left A,  !- Name
    Door,                    !- Surface Type
    HIBO Metal Frame Strip,  !- Construction Name
    Surface 25,              !- Building Surface Name
    HIBO Door 106 Frame Left B,  !- Outside Boundary Condition Object
    autocalculate,           !- View Factor to Ground
    ,                        !- Frame and Divider Name
    1,                       !- Multiplier
    4,                       !- Number of Vertices
    6.31240800,              !- Vertex 1 X-coordinate {m}
    5.84606400,              !- Vertex 1 Y-coordinate {m}
    2.13360000,              !- Vertex 1 Z-coordinate {m}
    6.31240800,              !- Vertex 2 X-coordinate {m}
    5.84606400,              !- Vertex 2 Y-coordinate {m}
    0.00000000,              !- Vertex 2 Z-coordinate {m}
    6.31240800,              !- Vertex 3 X-coordinate {m}
    5.89686400,              !- Vertex 3 Y-coordinate {m}
    0.00000000,              !- Vertex 3 Z-coordinate {m}
    6.31240800,              !- Vertex 4 X-coordinate {m}
    5.89686400,              !- Vertex 4 Y-coordinate {m}
    2.13360000;              !- Vertex 4 Z-coordinate {m}

FenestrationSurface:Detailed,
    HIBO Door 106 Frame Left B,  !- Name
    Door,                    !- Surface Type
    HIBO Metal Frame Strip,  !- Construction Name
    Surface 45,              !- Building Surface Name
    HIBO Door 106 Frame Left A,  !- Outside Boundary Condition Object
    autocalculate,           !- View Factor to Ground
    ,                        !- Frame and Divider Name
    1,                       !- Multiplier
    4,                       !- Number of Vertices
    6.31240800,              !- Vertex 1 X-coordinate {m}
    5.89686400,              !- Vertex 1 Y-coordinate {m}
    2.13360000,              !- Vertex 1 Z-coordinate {m}
    6.31240800,              !- Vertex 2 X-coordinate {m}
    5.89686400,              !- Vertex 2 Y-coordinate {m}
    0.00000000,              !- Vertex 2 Z-coordinate {m}
    6.31240800,              !- Vertex 3 X-coordinate {m}
    5.84606400,              !- Vertex 3 Y-coordinate {m}
    0.00000000,              !- Vertex 3 Z-coordinate {m}
    6.31240800,              !- Vertex 4 X-coordinate {m}
    5.84606400,              !- Vertex 4 Y-coordinate {m}
    2.13360000;              !- Vertex 4 Z-coordinate {m}

FenestrationSurface:Detailed,
    HIBO Door 106 Frame Right A,  !- Name
    Door,                    !- Surface Type
    HIBO Metal Frame Strip,  !- Construction Name
    Surface 25,              !- Building Surface Name
    HIBO Door 106 Frame Right B,  !- Outside Boundary Condition Object
    autocalculate,           !- View Factor to Ground
    ,                        !- Frame and Divider Name
    1,                       !- Multiplier
    4,                       !- Number of Vertices
    6.31240800,              !- Vertex 1 X-coordinate {m}
    6.81126400,              !- Vertex 1 Y-coordinate {m}
    2.13360000,              !- Vertex 1 Z-coordinate {m}
    6.31240800,              !- Vertex 2 X-coordinate {m}
    6.81126400,              !- Vertex 2 Y-coordinate {m}
    0.00000000,              !- Vertex 2 Z-coordinate {m}
    6.31240800,              !- Vertex 3 X-coordinate {m}
    6.86206400,              !- Vertex 3 Y-coordinate {m}
    0.00000000,              !- Vertex 3 Z-coordinate {m}
    6.31240800,              !- Vertex 4 X-coordinate {m}
    6.86206400,              !- Vertex 4 Y-coordinate {m}
    2.13360000;              !- Vertex 4 Z-coordinate {m}

FenestrationSurface:Detailed,
    HIBO Door 106 Frame Right B,  !- Name
    Door,                    !- Surface Type
    HIBO Metal Frame Strip,  !- Construction Name
    Surface 45,              !- Building Surface Name
    HIBO Door 106 Frame Right A,  !- Outside Boundary Condition Object
    autocalculate,           !- View Factor to Ground
    ,                        !- Frame and Divider Name
    1,                       !- Multiplier
    4,                       !- Number of Vertices
    6.31240800,              !- Vertex 1 X-coordinate {m}
    6.86206400,              !- Vertex 1 Y-coordinate {m}
    2.13360000,              !- Vertex 1 Z-coordinate {m}
    6.31240800,              !- Vertex 2 X-coordinate {m}
    6.86206400,              !- Vertex 2 Y-coordinate {m}
    0.00000000,              !- Vertex 2 Z-coordinate {m}
    6.31240800,              !- Vertex 3 X-coordinate {m}
    6.81126400,              !- Vertex 3 Y-coordinate {m}
    0.00000000,              !- Vertex 3 Z-coordinate {m}
    6.31240800,              !- Vertex 4 X-coordinate {m}
    6.81126400,              !- Vertex 4 Y-coordinate {m}
    2.13360000;              !- Vertex 4 Z-coordinate {m}

FenestrationSurface:Detailed,
    HIBO Door 106 Opaque Leaf A,  !- Name
    Door,                    !- Surface Type
    HIBO HM Door 1-3-4in,    !- Construction Name
    Surface 25,              !- Building Surface Name
    HIBO Door 106 Opaque Leaf B,  !- Outside Boundary Condition Object
    autocalculate,           !- View Factor to Ground
    ,                        !- Frame and Divider Name
    1,                       !- Multiplier
    4,                       !- Number of Vertices
    6.31240800,              !- Vertex 1 X-coordinate {m}
    5.89686400,              !- Vertex 1 Y-coordinate {m}
    2.13360000,              !- Vertex 1 Z-coordinate {m}
    6.31240800,              !- Vertex 2 X-coordinate {m}
    5.89686400,              !- Vertex 2 Y-coordinate {m}
    0.00000000,              !- Vertex 2 Z-coordinate {m}
    6.31240800,              !- Vertex 3 X-coordinate {m}
    6.81126400,              !- Vertex 3 Y-coordinate {m}
    0.00000000,              !- Vertex 3 Z-coordinate {m}
    6.31240800,              !- Vertex 4 X-coordinate {m}
    6.81126400,              !- Vertex 4 Y-coordinate {m}
    2.13360000;              !- Vertex 4 Z-coordinate {m}

FenestrationSurface:Detailed,
    HIBO Door 106 Opaque Leaf B,  !- Name
    Door,                    !- Surface Type
    HIBO HM Door 1-3-4in,    !- Construction Name
    Surface 45,              !- Building Surface Name
    HIBO Door 106 Opaque Leaf A,  !- Outside Boundary Condition Object
    autocalculate,           !- View Factor to Ground
    ,                        !- Frame and Divider Name
    1,                       !- Multiplier
    4,                       !- Number of Vertices
    6.31240800,              !- Vertex 1 X-coordinate {m}
    6.81126400,              !- Vertex 1 Y-coordinate {m}
    2.13360000,              !- Vertex 1 Z-coordinate {m}
    6.31240800,              !- Vertex 2 X-coordinate {m}
    6.81126400,              !- Vertex 2 Y-coordinate {m}
    0.00000000,              !- Vertex 2 Z-coordinate {m}
    6.31240800,              !- Vertex 3 X-coordinate {m}
    5.89686400,              !- Vertex 3 Y-coordinate {m}
    0.00000000,              !- Vertex 3 Z-coordinate {m}
    6.31240800,              !- Vertex 4 X-coordinate {m}
    5.89686400,              !- Vertex 4 Y-coordinate {m}
    2.13360000;              !- Vertex 4 Z-coordinate {m}

FenestrationSurface:Detailed,
    HIBO Type A LabB-Control Frame Bottom A,  !- Name
    Door,                    !- Surface Type
    HIBO Metal Frame Strip,  !- Construction Name
    Surface 6,               !- Building Surface Name
    HIBO Type A LabB-Control Frame Bottom B,  !- Outside Boundary Condition Object
    autocalculate,           !- View Factor to Ground
    ,                        !- Frame and Divider Name
    1,                       !- Multiplier
    4,                       !- Number of Vertices
    3.95630400,              !- Vertex 1 X-coordinate {m}
    0.93980000,              !- Vertex 1 Y-coordinate {m}
    1.06680000,              !- Vertex 1 Z-coordinate {m}
    3.95630400,              !- Vertex 2 X-coordinate {m}
    0.93980000,              !- Vertex 2 Y-coordinate {m}
    1.01600000,              !- Vertex 2 Z-coordinate {m}
    3.95630400,              !- Vertex 3 X-coordinate {m}
    2.15900000,              !- Vertex 3 Y-coordinate {m}
    1.01600000,              !- Vertex 3 Z-coordinate {m}
    3.95630400,              !- Vertex 4 X-coordinate {m}
    2.15900000,              !- Vertex 4 Y-coordinate {m}
    1.06680000;              !- Vertex 4 Z-coordinate {m}

FenestrationSurface:Detailed,
    HIBO Type A LabB-Control Frame Bottom B,  !- Name
    Door,                    !- Surface Type
    HIBO Metal Frame Strip,  !- Construction Name
    Surface 13,              !- Building Surface Name
    HIBO Type A LabB-Control Frame Bottom A,  !- Outside Boundary Condition Object
    autocalculate,           !- View Factor to Ground
    ,                        !- Frame and Divider Name
    1,                       !- Multiplier
    4,                       !- Number of Vertices
    3.95630400,              !- Vertex 1 X-coordinate {m}
    2.15900000,              !- Vertex 1 Y-coordinate {m}
    1.06680000,              !- Vertex 1 Z-coordinate {m}
    3.95630400,              !- Vertex 2 X-coordinate {m}
    2.15900000,              !- Vertex 2 Y-coordinate {m}
    1.01600000,              !- Vertex 2 Z-coordinate {m}
    3.95630400,              !- Vertex 3 X-coordinate {m}
    0.93980000,              !- Vertex 3 Y-coordinate {m}
    1.01600000,              !- Vertex 3 Z-coordinate {m}
    3.95630400,              !- Vertex 4 X-coordinate {m}
    0.93980000,              !- Vertex 4 Y-coordinate {m}
    1.06680000;              !- Vertex 4 Z-coordinate {m}

FenestrationSurface:Detailed,
    HIBO Type A LabB-Control Frame Top A,  !- Name
    Door,                    !- Surface Type
    HIBO Metal Frame Strip,  !- Construction Name
    Surface 6,               !- Building Surface Name
    HIBO Type A LabB-Control Frame Top B,  !- Outside Boundary Condition Object
    autocalculate,           !- View Factor to Ground
    ,                        !- Frame and Divider Name
    1,                       !- Multiplier
    4,                       !- Number of Vertices
    3.95630400,              !- Vertex 1 X-coordinate {m}
    0.93980000,              !- Vertex 1 Y-coordinate {m}
    1.93040000,              !- Vertex 1 Z-coordinate {m}
    3.95630400,              !- Vertex 2 X-coordinate {m}
    0.93980000,              !- Vertex 2 Y-coordinate {m}
    1.87960000,              !- Vertex 2 Z-coordinate {m}
    3.95630400,              !- Vertex 3 X-coordinate {m}
    2.15900000,              !- Vertex 3 Y-coordinate {m}
    1.87960000,              !- Vertex 3 Z-coordinate {m}
    3.95630400,              !- Vertex 4 X-coordinate {m}
    2.15900000,              !- Vertex 4 Y-coordinate {m}
    1.93040000;              !- Vertex 4 Z-coordinate {m}

FenestrationSurface:Detailed,
    HIBO Type A LabB-Control Frame Top B,  !- Name
    Door,                    !- Surface Type
    HIBO Metal Frame Strip,  !- Construction Name
    Surface 13,              !- Building Surface Name
    HIBO Type A LabB-Control Frame Top A,  !- Outside Boundary Condition Object
    autocalculate,           !- View Factor to Ground
    ,                        !- Frame and Divider Name
    1,                       !- Multiplier
    4,                       !- Number of Vertices
    3.95630400,              !- Vertex 1 X-coordinate {m}
    2.15900000,              !- Vertex 1 Y-coordinate {m}
    1.93040000,              !- Vertex 1 Z-coordinate {m}
    3.95630400,              !- Vertex 2 X-coordinate {m}
    2.15900000,              !- Vertex 2 Y-coordinate {m}
    1.87960000,              !- Vertex 2 Z-coordinate {m}
    3.95630400,              !- Vertex 3 X-coordinate {m}
    0.93980000,              !- Vertex 3 Y-coordinate {m}
    1.87960000,              !- Vertex 3 Z-coordinate {m}
    3.95630400,              !- Vertex 4 X-coordinate {m}
    0.93980000,              !- Vertex 4 Y-coordinate {m}
    1.93040000;              !- Vertex 4 Z-coordinate {m}

FenestrationSurface:Detailed,
    HIBO Type A LabB-Control Frame Left A,  !- Name
    Door,                    !- Surface Type
    HIBO Metal Frame Strip,  !- Construction Name
    Surface 6,               !- Building Surface Name
    HIBO Type A LabB-Control Frame Left B,  !- Outside Boundary Condition Object
    autocalculate,           !- View Factor to Ground
    ,                        !- Frame and Divider Name
    1,                       !- Multiplier
    4,                       !- Number of Vertices
    3.95630400,              !- Vertex 1 X-coordinate {m}
    0.93980000,              !- Vertex 1 Y-coordinate {m}
    1.87960000,              !- Vertex 1 Z-coordinate {m}
    3.95630400,              !- Vertex 2 X-coordinate {m}
    0.93980000,              !- Vertex 2 Y-coordinate {m}
    1.06680000,              !- Vertex 2 Z-coordinate {m}
    3.95630400,              !- Vertex 3 X-coordinate {m}
    0.99060000,              !- Vertex 3 Y-coordinate {m}
    1.06680000,              !- Vertex 3 Z-coordinate {m}
    3.95630400,              !- Vertex 4 X-coordinate {m}
    0.99060000,              !- Vertex 4 Y-coordinate {m}
    1.87960000;              !- Vertex 4 Z-coordinate {m}

FenestrationSurface:Detailed,
    HIBO Type A LabB-Control Frame Left B,  !- Name
    Door,                    !- Surface Type
    HIBO Metal Frame Strip,  !- Construction Name
    Surface 13,              !- Building Surface Name
    HIBO Type A LabB-Control Frame Left A,  !- Outside Boundary Condition Object
    autocalculate,           !- View Factor to Ground
    ,                        !- Frame and Divider Name
    1,                       !- Multiplier
    4,                       !- Number of Vertices
    3.95630400,              !- Vertex 1 X-coordinate {m}
    0.99060000,              !- Vertex 1 Y-coordinate {m}
    1.87960000,              !- Vertex 1 Z-coordinate {m}
    3.95630400,              !- Vertex 2 X-coordinate {m}
    0.99060000,              !- Vertex 2 Y-coordinate {m}
    1.06680000,              !- Vertex 2 Z-coordinate {m}
    3.95630400,              !- Vertex 3 X-coordinate {m}
    0.93980000,              !- Vertex 3 Y-coordinate {m}
    1.06680000,              !- Vertex 3 Z-coordinate {m}
    3.95630400,              !- Vertex 4 X-coordinate {m}
    0.93980000,              !- Vertex 4 Y-coordinate {m}
    1.87960000;              !- Vertex 4 Z-coordinate {m}

FenestrationSurface:Detailed,
    HIBO Type A LabB-Control Frame Right A,  !- Name
    Door,                    !- Surface Type
    HIBO Metal Frame Strip,  !- Construction Name
    Surface 6,               !- Building Surface Name
    HIBO Type A LabB-Control Frame Right B,  !- Outside Boundary Condition Object
    autocalculate,           !- View Factor to Ground
    ,                        !- Frame and Divider Name
    1,                       !- Multiplier
    4,                       !- Number of Vertices
    3.95630400,              !- Vertex 1 X-coordinate {m}
    2.10820000,              !- Vertex 1 Y-coordinate {m}
    1.87960000,              !- Vertex 1 Z-coordinate {m}
    3.95630400,              !- Vertex 2 X-coordinate {m}
    2.10820000,              !- Vertex 2 Y-coordinate {m}
    1.06680000,              !- Vertex 2 Z-coordinate {m}
    3.95630400,              !- Vertex 3 X-coordinate {m}
    2.15900000,              !- Vertex 3 Y-coordinate {m}
    1.06680000,              !- Vertex 3 Z-coordinate {m}
    3.95630400,              !- Vertex 4 X-coordinate {m}
    2.15900000,              !- Vertex 4 Y-coordinate {m}
    1.87960000;              !- Vertex 4 Z-coordinate {m}

FenestrationSurface:Detailed,
    HIBO Type A LabB-Control Frame Right B,  !- Name
    Door,                    !- Surface Type
    HIBO Metal Frame Strip,  !- Construction Name
    Surface 13,              !- Building Surface Name
    HIBO Type A LabB-Control Frame Right A,  !- Outside Boundary Condition Object
    autocalculate,           !- View Factor to Ground
    ,                        !- Frame and Divider Name
    1,                       !- Multiplier
    4,                       !- Number of Vertices
    3.95630400,              !- Vertex 1 X-coordinate {m}
    2.15900000,              !- Vertex 1 Y-coordinate {m}
    1.87960000,              !- Vertex 1 Z-coordinate {m}
    3.95630400,              !- Vertex 2 X-coordinate {m}
    2.15900000,              !- Vertex 2 Y-coordinate {m}
    1.06680000,              !- Vertex 2 Z-coordinate {m}
    3.95630400,              !- Vertex 3 X-coordinate {m}
    2.10820000,              !- Vertex 3 Y-coordinate {m}
    1.06680000,              !- Vertex 3 Z-coordinate {m}
    3.95630400,              !- Vertex 4 X-coordinate {m}
    2.10820000,              !- Vertex 4 Y-coordinate {m}
    1.87960000;              !- Vertex 4 Z-coordinate {m}

FenestrationSurface:Detailed,
    HIBO Type A LabB-Control CTG A,  !- Name
    Window,                  !- Surface Type
    HIBO Interior CTG,       !- Construction Name
    Surface 6,               !- Building Surface Name
    HIBO Type A LabB-Control CTG B,  !- Outside Boundary Condition Object
    autocalculate,           !- View Factor to Ground
    ,                        !- Frame and Divider Name
    1,                       !- Multiplier
    4,                       !- Number of Vertices
    3.95630400,              !- Vertex 1 X-coordinate {m}
    0.99060000,              !- Vertex 1 Y-coordinate {m}
    1.87960000,              !- Vertex 1 Z-coordinate {m}
    3.95630400,              !- Vertex 2 X-coordinate {m}
    0.99060000,              !- Vertex 2 Y-coordinate {m}
    1.06680000,              !- Vertex 2 Z-coordinate {m}
    3.95630400,              !- Vertex 3 X-coordinate {m}
    2.10820000,              !- Vertex 3 Y-coordinate {m}
    1.06680000,              !- Vertex 3 Z-coordinate {m}
    3.95630400,              !- Vertex 4 X-coordinate {m}
    2.10820000,              !- Vertex 4 Y-coordinate {m}
    1.87960000;              !- Vertex 4 Z-coordinate {m}

FenestrationSurface:Detailed,
    HIBO Type A LabB-Control CTG B,  !- Name
    Window,                  !- Surface Type
    HIBO Interior CTG,       !- Construction Name
    Surface 13,              !- Building Surface Name
    HIBO Type A LabB-Control CTG A,  !- Outside Boundary Condition Object
    autocalculate,           !- View Factor to Ground
    ,                        !- Frame and Divider Name
    1,                       !- Multiplier
    4,                       !- Number of Vertices
    3.95630400,              !- Vertex 1 X-coordinate {m}
    2.10820000,              !- Vertex 1 Y-coordinate {m}
    1.87960000,              !- Vertex 1 Z-coordinate {m}
    3.95630400,              !- Vertex 2 X-coordinate {m}
    2.10820000,              !- Vertex 2 Y-coordinate {m}
    1.06680000,              !- Vertex 2 Z-coordinate {m}
    3.95630400,              !- Vertex 3 X-coordinate {m}
    0.99060000,              !- Vertex 3 Y-coordinate {m}
    1.06680000,              !- Vertex 3 Z-coordinate {m}
    3.95630400,              !- Vertex 4 X-coordinate {m}
    0.99060000,              !- Vertex 4 Y-coordinate {m}
    1.87960000;              !- Vertex 4 Z-coordinate {m}

FenestrationSurface:Detailed,
    HIBO Type A LabA-Control Frame Bottom A,  !- Name
    Door,                    !- Surface Type
    HIBO Metal Frame Strip,  !- Construction Name
    Surface 20,              !- Building Surface Name
    HIBO Type A LabA-Control Frame Bottom B,  !- Outside Boundary Condition Object
    autocalculate,           !- View Factor to Ground
    ,                        !- Frame and Divider Name
    1,                       !- Multiplier
    4,                       !- Number of Vertices
    7.04392800,              !- Vertex 1 X-coordinate {m}
    2.15900000,              !- Vertex 1 Y-coordinate {m}
    1.06680000,              !- Vertex 1 Z-coordinate {m}
    7.04392800,              !- Vertex 2 X-coordinate {m}
    2.15900000,              !- Vertex 2 Y-coordinate {m}
    1.01600000,              !- Vertex 2 Z-coordinate {m}
    7.04392800,              !- Vertex 3 X-coordinate {m}
    0.93980000,              !- Vertex 3 Y-coordinate {m}
    1.01600000,              !- Vertex 3 Z-coordinate {m}
    7.04392800,              !- Vertex 4 X-coordinate {m}
    0.93980000,              !- Vertex 4 Y-coordinate {m}
    1.06680000;              !- Vertex 4 Z-coordinate {m}

FenestrationSurface:Detailed,
    HIBO Type A LabA-Control Frame Bottom B,  !- Name
    Door,                    !- Surface Type
    HIBO Metal Frame Strip,  !- Construction Name
    Surface 11,              !- Building Surface Name
    HIBO Type A LabA-Control Frame Bottom A,  !- Outside Boundary Condition Object
    autocalculate,           !- View Factor to Ground
    ,                        !- Frame and Divider Name
    1,                       !- Multiplier
    4,                       !- Number of Vertices
    7.04392800,              !- Vertex 1 X-coordinate {m}
    0.93980000,              !- Vertex 1 Y-coordinate {m}
    1.06680000,              !- Vertex 1 Z-coordinate {m}
    7.04392800,              !- Vertex 2 X-coordinate {m}
    0.93980000,              !- Vertex 2 Y-coordinate {m}
    1.01600000,              !- Vertex 2 Z-coordinate {m}
    7.04392800,              !- Vertex 3 X-coordinate {m}
    2.15900000,              !- Vertex 3 Y-coordinate {m}
    1.01600000,              !- Vertex 3 Z-coordinate {m}
    7.04392800,              !- Vertex 4 X-coordinate {m}
    2.15900000,              !- Vertex 4 Y-coordinate {m}
    1.06680000;              !- Vertex 4 Z-coordinate {m}

FenestrationSurface:Detailed,
    HIBO Type A LabA-Control Frame Top A,  !- Name
    Door,                    !- Surface Type
    HIBO Metal Frame Strip,  !- Construction Name
    Surface 20,              !- Building Surface Name
    HIBO Type A LabA-Control Frame Top B,  !- Outside Boundary Condition Object
    autocalculate,           !- View Factor to Ground
    ,                        !- Frame and Divider Name
    1,                       !- Multiplier
    4,                       !- Number of Vertices
    7.04392800,              !- Vertex 1 X-coordinate {m}
    2.15900000,              !- Vertex 1 Y-coordinate {m}
    1.93040000,              !- Vertex 1 Z-coordinate {m}
    7.04392800,              !- Vertex 2 X-coordinate {m}
    2.15900000,              !- Vertex 2 Y-coordinate {m}
    1.87960000,              !- Vertex 2 Z-coordinate {m}
    7.04392800,              !- Vertex 3 X-coordinate {m}
    0.93980000,              !- Vertex 3 Y-coordinate {m}
    1.87960000,              !- Vertex 3 Z-coordinate {m}
    7.04392800,              !- Vertex 4 X-coordinate {m}
    0.93980000,              !- Vertex 4 Y-coordinate {m}
    1.93040000;              !- Vertex 4 Z-coordinate {m}

FenestrationSurface:Detailed,
    HIBO Type A LabA-Control Frame Top B,  !- Name
    Door,                    !- Surface Type
    HIBO Metal Frame Strip,  !- Construction Name
    Surface 11,              !- Building Surface Name
    HIBO Type A LabA-Control Frame Top A,  !- Outside Boundary Condition Object
    autocalculate,           !- View Factor to Ground
    ,                        !- Frame and Divider Name
    1,                       !- Multiplier
    4,                       !- Number of Vertices
    7.04392800,              !- Vertex 1 X-coordinate {m}
    0.93980000,              !- Vertex 1 Y-coordinate {m}
    1.93040000,              !- Vertex 1 Z-coordinate {m}
    7.04392800,              !- Vertex 2 X-coordinate {m}
    0.93980000,              !- Vertex 2 Y-coordinate {m}
    1.87960000,              !- Vertex 2 Z-coordinate {m}
    7.04392800,              !- Vertex 3 X-coordinate {m}
    2.15900000,              !- Vertex 3 Y-coordinate {m}
    1.87960000,              !- Vertex 3 Z-coordinate {m}
    7.04392800,              !- Vertex 4 X-coordinate {m}
    2.15900000,              !- Vertex 4 Y-coordinate {m}
    1.93040000;              !- Vertex 4 Z-coordinate {m}

FenestrationSurface:Detailed,
    HIBO Type A LabA-Control Frame Left A,  !- Name
    Door,                    !- Surface Type
    HIBO Metal Frame Strip,  !- Construction Name
    Surface 20,              !- Building Surface Name
    HIBO Type A LabA-Control Frame Left B,  !- Outside Boundary Condition Object
    autocalculate,           !- View Factor to Ground
    ,                        !- Frame and Divider Name
    1,                       !- Multiplier
    4,                       !- Number of Vertices
    7.04392800,              !- Vertex 1 X-coordinate {m}
    0.99060000,              !- Vertex 1 Y-coordinate {m}
    1.87960000,              !- Vertex 1 Z-coordinate {m}
    7.04392800,              !- Vertex 2 X-coordinate {m}
    0.99060000,              !- Vertex 2 Y-coordinate {m}
    1.06680000,              !- Vertex 2 Z-coordinate {m}
    7.04392800,              !- Vertex 3 X-coordinate {m}
    0.93980000,              !- Vertex 3 Y-coordinate {m}
    1.06680000,              !- Vertex 3 Z-coordinate {m}
    7.04392800,              !- Vertex 4 X-coordinate {m}
    0.93980000,              !- Vertex 4 Y-coordinate {m}
    1.87960000;              !- Vertex 4 Z-coordinate {m}

FenestrationSurface:Detailed,
    HIBO Type A LabA-Control Frame Left B,  !- Name
    Door,                    !- Surface Type
    HIBO Metal Frame Strip,  !- Construction Name
    Surface 11,              !- Building Surface Name
    HIBO Type A LabA-Control Frame Left A,  !- Outside Boundary Condition Object
    autocalculate,           !- View Factor to Ground
    ,                        !- Frame and Divider Name
    1,                       !- Multiplier
    4,                       !- Number of Vertices
    7.04392800,              !- Vertex 1 X-coordinate {m}
    0.93980000,              !- Vertex 1 Y-coordinate {m}
    1.87960000,              !- Vertex 1 Z-coordinate {m}
    7.04392800,              !- Vertex 2 X-coordinate {m}
    0.93980000,              !- Vertex 2 Y-coordinate {m}
    1.06680000,              !- Vertex 2 Z-coordinate {m}
    7.04392800,              !- Vertex 3 X-coordinate {m}
    0.99060000,              !- Vertex 3 Y-coordinate {m}
    1.06680000,              !- Vertex 3 Z-coordinate {m}
    7.04392800,              !- Vertex 4 X-coordinate {m}
    0.99060000,              !- Vertex 4 Y-coordinate {m}
    1.87960000;              !- Vertex 4 Z-coordinate {m}

FenestrationSurface:Detailed,
    HIBO Type A LabA-Control Frame Right A,  !- Name
    Door,                    !- Surface Type
    HIBO Metal Frame Strip,  !- Construction Name
    Surface 20,              !- Building Surface Name
    HIBO Type A LabA-Control Frame Right B,  !- Outside Boundary Condition Object
    autocalculate,           !- View Factor to Ground
    ,                        !- Frame and Divider Name
    1,                       !- Multiplier
    4,                       !- Number of Vertices
    7.04392800,              !- Vertex 1 X-coordinate {m}
    2.15900000,              !- Vertex 1 Y-coordinate {m}
    1.87960000,              !- Vertex 1 Z-coordinate {m}
    7.04392800,              !- Vertex 2 X-coordinate {m}
    2.15900000,              !- Vertex 2 Y-coordinate {m}
    1.06680000,              !- Vertex 2 Z-coordinate {m}
    7.04392800,              !- Vertex 3 X-coordinate {m}
    2.10820000,              !- Vertex 3 Y-coordinate {m}
    1.06680000,              !- Vertex 3 Z-coordinate {m}
    7.04392800,              !- Vertex 4 X-coordinate {m}
    2.10820000,              !- Vertex 4 Y-coordinate {m}
    1.87960000;              !- Vertex 4 Z-coordinate {m}

FenestrationSurface:Detailed,
    HIBO Type A LabA-Control Frame Right B,  !- Name
    Door,                    !- Surface Type
    HIBO Metal Frame Strip,  !- Construction Name
    Surface 11,              !- Building Surface Name
    HIBO Type A LabA-Control Frame Right A,  !- Outside Boundary Condition Object
    autocalculate,           !- View Factor to Ground
    ,                        !- Frame and Divider Name
    1,                       !- Multiplier
    4,                       !- Number of Vertices
    7.04392800,              !- Vertex 1 X-coordinate {m}
    2.10820000,              !- Vertex 1 Y-coordinate {m}
    1.87960000,              !- Vertex 1 Z-coordinate {m}
    7.04392800,              !- Vertex 2 X-coordinate {m}
    2.10820000,              !- Vertex 2 Y-coordinate {m}
    1.06680000,              !- Vertex 2 Z-coordinate {m}
    7.04392800,              !- Vertex 3 X-coordinate {m}
    2.15900000,              !- Vertex 3 Y-coordinate {m}
    1.06680000,              !- Vertex 3 Z-coordinate {m}
    7.04392800,              !- Vertex 4 X-coordinate {m}
    2.15900000,              !- Vertex 4 Y-coordinate {m}
    1.87960000;              !- Vertex 4 Z-coordinate {m}

FenestrationSurface:Detailed,
    HIBO Type A LabA-Control CTG A,  !- Name
    Window,                  !- Surface Type
    HIBO Interior CTG,       !- Construction Name
    Surface 20,              !- Building Surface Name
    HIBO Type A LabA-Control CTG B,  !- Outside Boundary Condition Object
    autocalculate,           !- View Factor to Ground
    ,                        !- Frame and Divider Name
    1,                       !- Multiplier
    4,                       !- Number of Vertices
    7.04392800,              !- Vertex 1 X-coordinate {m}
    2.10820000,              !- Vertex 1 Y-coordinate {m}
    1.87960000,              !- Vertex 1 Z-coordinate {m}
    7.04392800,              !- Vertex 2 X-coordinate {m}
    2.10820000,              !- Vertex 2 Y-coordinate {m}
    1.06680000,              !- Vertex 2 Z-coordinate {m}
    7.04392800,              !- Vertex 3 X-coordinate {m}
    0.99060000,              !- Vertex 3 Y-coordinate {m}
    1.06680000,              !- Vertex 3 Z-coordinate {m}
    7.04392800,              !- Vertex 4 X-coordinate {m}
    0.99060000,              !- Vertex 4 Y-coordinate {m}
    1.87960000;              !- Vertex 4 Z-coordinate {m}

FenestrationSurface:Detailed,
    HIBO Type A LabA-Control CTG B,  !- Name
    Window,                  !- Surface Type
    HIBO Interior CTG,       !- Construction Name
    Surface 11,              !- Building Surface Name
    HIBO Type A LabA-Control CTG A,  !- Outside Boundary Condition Object
    autocalculate,           !- View Factor to Ground
    ,                        !- Frame and Divider Name
    1,                       !- Multiplier
    4,                       !- Number of Vertices
    7.04392800,              !- Vertex 1 X-coordinate {m}
    0.99060000,              !- Vertex 1 Y-coordinate {m}
    1.87960000,              !- Vertex 1 Z-coordinate {m}
    7.04392800,              !- Vertex 2 X-coordinate {m}
    0.99060000,              !- Vertex 2 Y-coordinate {m}
    1.06680000,              !- Vertex 2 Z-coordinate {m}
    7.04392800,              !- Vertex 3 X-coordinate {m}
    2.10820000,              !- Vertex 3 Y-coordinate {m}
    1.06680000,              !- Vertex 3 Z-coordinate {m}
    7.04392800,              !- Vertex 4 X-coordinate {m}
    2.10820000,              !- Vertex 4 Y-coordinate {m}
    1.87960000;              !- Vertex 4 Z-coordinate {m}

FenestrationSurface:Detailed,
    HIBO CWC LabB Spandrel Frame Top,  !- Name
    Door,                    !- Surface Type
    HIBO Exterior Aluminum Frame Strip,  !- Construction Name
    Surface 55,              !- Building Surface Name
    ,                        !- Outside Boundary Condition Object
    autocalculate,           !- View Factor to Ground
    ,                        !- Frame and Divider Name
    1,                       !- Multiplier
    4,                       !- Number of Vertices
    0.14935200,              !- Vertex 1 X-coordinate {m}
    0.00000000,              !- Vertex 1 Y-coordinate {m}
    4.06400000,              !- Vertex 1 Z-coordinate {m}
    0.14935200,              !- Vertex 2 X-coordinate {m}
    0.00000000,              !- Vertex 2 Y-coordinate {m}
    4.01320000,              !- Vertex 2 Z-coordinate {m}
    3.80695200,              !- Vertex 3 X-coordinate {m}
    0.00000000,              !- Vertex 3 Y-coordinate {m}
    4.01320000,              !- Vertex 3 Z-coordinate {m}
    3.80695200,              !- Vertex 4 X-coordinate {m}
    0.00000000,              !- Vertex 4 Y-coordinate {m}
    4.06400000;              !- Vertex 4 Z-coordinate {m}

FenestrationSurface:Detailed,
    HIBO CWC LabB Spandrel Frame Left,  !- Name
    Door,                    !- Surface Type
    HIBO Exterior Aluminum Frame Strip,  !- Construction Name
    Surface 55,              !- Building Surface Name
    ,                        !- Outside Boundary Condition Object
    autocalculate,           !- View Factor to Ground
    ,                        !- Frame and Divider Name
    1,                       !- Multiplier
    4,                       !- Number of Vertices
    0.14935200,              !- Vertex 1 X-coordinate {m}
    0.00000000,              !- Vertex 1 Y-coordinate {m}
    4.01320000,              !- Vertex 1 Z-coordinate {m}
    0.14935200,              !- Vertex 2 X-coordinate {m}
    0.00000000,              !- Vertex 2 Y-coordinate {m}
    3.04800000,              !- Vertex 2 Z-coordinate {m}
    0.20015200,              !- Vertex 3 X-coordinate {m}
    0.00000000,              !- Vertex 3 Y-coordinate {m}
    3.04800000,              !- Vertex 3 Z-coordinate {m}
    0.20015200,              !- Vertex 4 X-coordinate {m}
    0.00000000,              !- Vertex 4 Y-coordinate {m}
    4.01320000;              !- Vertex 4 Z-coordinate {m}

FenestrationSurface:Detailed,
    HIBO CWC LabB Spandrel Frame Right,  !- Name
    Door,                    !- Surface Type
    HIBO Exterior Aluminum Frame Strip,  !- Construction Name
    Surface 55,              !- Building Surface Name
    ,                        !- Outside Boundary Condition Object
    autocalculate,           !- View Factor to Ground
    ,                        !- Frame and Divider Name
    1,                       !- Multiplier
    4,                       !- Number of Vertices
    3.75615200,              !- Vertex 1 X-coordinate {m}
    0.00000000,              !- Vertex 1 Y-coordinate {m}
    4.01320000,              !- Vertex 1 Z-coordinate {m}
    3.75615200,              !- Vertex 2 X-coordinate {m}
    0.00000000,              !- Vertex 2 Y-coordinate {m}
    3.04800000,              !- Vertex 2 Z-coordinate {m}
    3.80695200,              !- Vertex 3 X-coordinate {m}
    0.00000000,              !- Vertex 3 Y-coordinate {m}
    3.04800000,              !- Vertex 3 Z-coordinate {m}
    3.80695200,              !- Vertex 4 X-coordinate {m}
    0.00000000,              !- Vertex 4 Y-coordinate {m}
    4.01320000;              !- Vertex 4 Z-coordinate {m}

FenestrationSurface:Detailed,
    HIBO CWC LabB Opaque Spandrel 1,  !- Name
    Door,                    !- Surface Type
    HIBO ITSG Opaque Panel,  !- Construction Name
    Surface 55,              !- Building Surface Name
    ,                        !- Outside Boundary Condition Object
    autocalculate,           !- View Factor to Ground
    ,                        !- Frame and Divider Name
    1,                       !- Multiplier
    4,                       !- Number of Vertices
    0.20015200,              !- Vertex 1 X-coordinate {m}
    0.00000000,              !- Vertex 1 Y-coordinate {m}
    4.01320000,              !- Vertex 1 Z-coordinate {m}
    0.20015200,              !- Vertex 2 X-coordinate {m}
    0.00000000,              !- Vertex 2 Y-coordinate {m}
    3.04800000,              !- Vertex 2 Z-coordinate {m}
    1.05105200,              !- Vertex 3 X-coordinate {m}
    0.00000000,              !- Vertex 3 Y-coordinate {m}
    3.04800000,              !- Vertex 3 Z-coordinate {m}
    1.05105200,              !- Vertex 4 X-coordinate {m}
    0.00000000,              !- Vertex 4 Y-coordinate {m}
    4.01320000;              !- Vertex 4 Z-coordinate {m}

FenestrationSurface:Detailed,
    HIBO CWC LabB Spandrel Mullion 1,  !- Name
    Door,                    !- Surface Type
    HIBO Exterior Aluminum Frame Strip,  !- Construction Name
    Surface 55,              !- Building Surface Name
    ,                        !- Outside Boundary Condition Object
    autocalculate,           !- View Factor to Ground
    ,                        !- Frame and Divider Name
    1,                       !- Multiplier
    4,                       !- Number of Vertices
    1.05105200,              !- Vertex 1 X-coordinate {m}
    0.00000000,              !- Vertex 1 Y-coordinate {m}
    4.01320000,              !- Vertex 1 Z-coordinate {m}
    1.05105200,              !- Vertex 2 X-coordinate {m}
    0.00000000,              !- Vertex 2 Y-coordinate {m}
    3.04800000,              !- Vertex 2 Z-coordinate {m}
    1.10185200,              !- Vertex 3 X-coordinate {m}
    0.00000000,              !- Vertex 3 Y-coordinate {m}
    3.04800000,              !- Vertex 3 Z-coordinate {m}
    1.10185200,              !- Vertex 4 X-coordinate {m}
    0.00000000,              !- Vertex 4 Y-coordinate {m}
    4.01320000;              !- Vertex 4 Z-coordinate {m}

FenestrationSurface:Detailed,
    HIBO CWC LabB Opaque Spandrel 2,  !- Name
    Door,                    !- Surface Type
    HIBO ITSG Opaque Panel,  !- Construction Name
    Surface 55,              !- Building Surface Name
    ,                        !- Outside Boundary Condition Object
    autocalculate,           !- View Factor to Ground
    ,                        !- Frame and Divider Name
    1,                       !- Multiplier
    4,                       !- Number of Vertices
    1.10185200,              !- Vertex 1 X-coordinate {m}
    0.00000000,              !- Vertex 1 Y-coordinate {m}
    4.01320000,              !- Vertex 1 Z-coordinate {m}
    1.10185200,              !- Vertex 2 X-coordinate {m}
    0.00000000,              !- Vertex 2 Y-coordinate {m}
    3.04800000,              !- Vertex 2 Z-coordinate {m}
    1.95275200,              !- Vertex 3 X-coordinate {m}
    0.00000000,              !- Vertex 3 Y-coordinate {m}
    3.04800000,              !- Vertex 3 Z-coordinate {m}
    1.95275200,              !- Vertex 4 X-coordinate {m}
    0.00000000,              !- Vertex 4 Y-coordinate {m}
    4.01320000;              !- Vertex 4 Z-coordinate {m}

FenestrationSurface:Detailed,
    HIBO CWC LabB Spandrel Mullion 2,  !- Name
    Door,                    !- Surface Type
    HIBO Exterior Aluminum Frame Strip,  !- Construction Name
    Surface 55,              !- Building Surface Name
    ,                        !- Outside Boundary Condition Object
    autocalculate,           !- View Factor to Ground
    ,                        !- Frame and Divider Name
    1,                       !- Multiplier
    4,                       !- Number of Vertices
    1.95275200,              !- Vertex 1 X-coordinate {m}
    0.00000000,              !- Vertex 1 Y-coordinate {m}
    4.01320000,              !- Vertex 1 Z-coordinate {m}
    1.95275200,              !- Vertex 2 X-coordinate {m}
    0.00000000,              !- Vertex 2 Y-coordinate {m}
    3.04800000,              !- Vertex 2 Z-coordinate {m}
    2.00355200,              !- Vertex 3 X-coordinate {m}
    0.00000000,              !- Vertex 3 Y-coordinate {m}
    3.04800000,              !- Vertex 3 Z-coordinate {m}
    2.00355200,              !- Vertex 4 X-coordinate {m}
    0.00000000,              !- Vertex 4 Y-coordinate {m}
    4.01320000;              !- Vertex 4 Z-coordinate {m}

FenestrationSurface:Detailed,
    HIBO CWC LabB Opaque Spandrel 3,  !- Name
    Door,                    !- Surface Type
    HIBO ITSG Opaque Panel,  !- Construction Name
    Surface 55,              !- Building Surface Name
    ,                        !- Outside Boundary Condition Object
    autocalculate,           !- View Factor to Ground
    ,                        !- Frame and Divider Name
    1,                       !- Multiplier
    4,                       !- Number of Vertices
    2.00355200,              !- Vertex 1 X-coordinate {m}
    0.00000000,              !- Vertex 1 Y-coordinate {m}
    4.01320000,              !- Vertex 1 Z-coordinate {m}
    2.00355200,              !- Vertex 2 X-coordinate {m}
    0.00000000,              !- Vertex 2 Y-coordinate {m}
    3.04800000,              !- Vertex 2 Z-coordinate {m}
    2.85445200,              !- Vertex 3 X-coordinate {m}
    0.00000000,              !- Vertex 3 Y-coordinate {m}
    3.04800000,              !- Vertex 3 Z-coordinate {m}
    2.85445200,              !- Vertex 4 X-coordinate {m}
    0.00000000,              !- Vertex 4 Y-coordinate {m}
    4.01320000;              !- Vertex 4 Z-coordinate {m}

FenestrationSurface:Detailed,
    HIBO CWC LabB Spandrel Mullion 3,  !- Name
    Door,                    !- Surface Type
    HIBO Exterior Aluminum Frame Strip,  !- Construction Name
    Surface 55,              !- Building Surface Name
    ,                        !- Outside Boundary Condition Object
    autocalculate,           !- View Factor to Ground
    ,                        !- Frame and Divider Name
    1,                       !- Multiplier
    4,                       !- Number of Vertices
    2.85445200,              !- Vertex 1 X-coordinate {m}
    0.00000000,              !- Vertex 1 Y-coordinate {m}
    4.01320000,              !- Vertex 1 Z-coordinate {m}
    2.85445200,              !- Vertex 2 X-coordinate {m}
    0.00000000,              !- Vertex 2 Y-coordinate {m}
    3.04800000,              !- Vertex 2 Z-coordinate {m}
    2.90525200,              !- Vertex 3 X-coordinate {m}
    0.00000000,              !- Vertex 3 Y-coordinate {m}
    3.04800000,              !- Vertex 3 Z-coordinate {m}
    2.90525200,              !- Vertex 4 X-coordinate {m}
    0.00000000,              !- Vertex 4 Y-coordinate {m}
    4.01320000;              !- Vertex 4 Z-coordinate {m}

FenestrationSurface:Detailed,
    HIBO CWC LabB Opaque Spandrel 4,  !- Name
    Door,                    !- Surface Type
    HIBO ITSG Opaque Panel,  !- Construction Name
    Surface 55,              !- Building Surface Name
    ,                        !- Outside Boundary Condition Object
    autocalculate,           !- View Factor to Ground
    ,                        !- Frame and Divider Name
    1,                       !- Multiplier
    4,                       !- Number of Vertices
    2.90525200,              !- Vertex 1 X-coordinate {m}
    0.00000000,              !- Vertex 1 Y-coordinate {m}
    4.01320000,              !- Vertex 1 Z-coordinate {m}
    2.90525200,              !- Vertex 2 X-coordinate {m}
    0.00000000,              !- Vertex 2 Y-coordinate {m}
    3.04800000,              !- Vertex 2 Z-coordinate {m}
    3.75615200,              !- Vertex 3 X-coordinate {m}
    0.00000000,              !- Vertex 3 Y-coordinate {m}
    3.04800000,              !- Vertex 3 Z-coordinate {m}
    3.75615200,              !- Vertex 4 X-coordinate {m}
    0.00000000,              !- Vertex 4 Y-coordinate {m}
    4.01320000;              !- Vertex 4 Z-coordinate {m}

FenestrationSurface:Detailed,
    HIBO CWB Control Spandrel Frame Top,  !- Name
    Door,                    !- Surface Type
    HIBO Exterior Aluminum Frame Strip,  !- Construction Name
    Surface 55,              !- Building Surface Name
    ,                        !- Outside Boundary Condition Object
    autocalculate,           !- View Factor to Ground
    ,                        !- Frame and Divider Name
    1,                       !- Multiplier
    4,                       !- Number of Vertices
    4.89051600,              !- Vertex 1 X-coordinate {m}
    0.00000000,              !- Vertex 1 Y-coordinate {m}
    4.06400000,              !- Vertex 1 Z-coordinate {m}
    4.89051600,              !- Vertex 2 X-coordinate {m}
    0.00000000,              !- Vertex 2 Y-coordinate {m}
    4.01320000,              !- Vertex 2 Z-coordinate {m}
    6.10971600,              !- Vertex 3 X-coordinate {m}
    0.00000000,              !- Vertex 3 Y-coordinate {m}
    4.01320000,              !- Vertex 3 Z-coordinate {m}
    6.10971600,              !- Vertex 4 X-coordinate {m}
    0.00000000,              !- Vertex 4 Y-coordinate {m}
    4.06400000;              !- Vertex 4 Z-coordinate {m}

FenestrationSurface:Detailed,
    HIBO CWB Control Spandrel Frame Left,  !- Name
    Door,                    !- Surface Type
    HIBO Exterior Aluminum Frame Strip,  !- Construction Name
    Surface 55,              !- Building Surface Name
    ,                        !- Outside Boundary Condition Object
    autocalculate,           !- View Factor to Ground
    ,                        !- Frame and Divider Name
    1,                       !- Multiplier
    4,                       !- Number of Vertices
    4.89051600,              !- Vertex 1 X-coordinate {m}
    0.00000000,              !- Vertex 1 Y-coordinate {m}
    4.01320000,              !- Vertex 1 Z-coordinate {m}
    4.89051600,              !- Vertex 2 X-coordinate {m}
    0.00000000,              !- Vertex 2 Y-coordinate {m}
    3.04800000,              !- Vertex 2 Z-coordinate {m}
    4.94131600,              !- Vertex 3 X-coordinate {m}
    0.00000000,              !- Vertex 3 Y-coordinate {m}
    3.04800000,              !- Vertex 3 Z-coordinate {m}
    4.94131600,              !- Vertex 4 X-coordinate {m}
    0.00000000,              !- Vertex 4 Y-coordinate {m}
    4.01320000;              !- Vertex 4 Z-coordinate {m}

FenestrationSurface:Detailed,
    HIBO CWB Control Spandrel Frame Right,  !- Name
    Door,                    !- Surface Type
    HIBO Exterior Aluminum Frame Strip,  !- Construction Name
    Surface 55,              !- Building Surface Name
    ,                        !- Outside Boundary Condition Object
    autocalculate,           !- View Factor to Ground
    ,                        !- Frame and Divider Name
    1,                       !- Multiplier
    4,                       !- Number of Vertices
    6.05891600,              !- Vertex 1 X-coordinate {m}
    0.00000000,              !- Vertex 1 Y-coordinate {m}
    4.01320000,              !- Vertex 1 Z-coordinate {m}
    6.05891600,              !- Vertex 2 X-coordinate {m}
    0.00000000,              !- Vertex 2 Y-coordinate {m}
    3.04800000,              !- Vertex 2 Z-coordinate {m}
    6.10971600,              !- Vertex 3 X-coordinate {m}
    0.00000000,              !- Vertex 3 Y-coordinate {m}
    3.04800000,              !- Vertex 3 Z-coordinate {m}
    6.10971600,              !- Vertex 4 X-coordinate {m}
    0.00000000,              !- Vertex 4 Y-coordinate {m}
    4.01320000;              !- Vertex 4 Z-coordinate {m}

FenestrationSurface:Detailed,
    HIBO CWB Control Opaque Spandrel 1,  !- Name
    Door,                    !- Surface Type
    HIBO ITSG Opaque Panel,  !- Construction Name
    Surface 55,              !- Building Surface Name
    ,                        !- Outside Boundary Condition Object
    autocalculate,           !- View Factor to Ground
    ,                        !- Frame and Divider Name
    1,                       !- Multiplier
    4,                       !- Number of Vertices
    4.94131600,              !- Vertex 1 X-coordinate {m}
    0.00000000,              !- Vertex 1 Y-coordinate {m}
    4.01320000,              !- Vertex 1 Z-coordinate {m}
    4.94131600,              !- Vertex 2 X-coordinate {m}
    0.00000000,              !- Vertex 2 Y-coordinate {m}
    3.04800000,              !- Vertex 2 Z-coordinate {m}
    6.05891600,              !- Vertex 3 X-coordinate {m}
    0.00000000,              !- Vertex 3 Y-coordinate {m}
    3.04800000,              !- Vertex 3 Z-coordinate {m}
    6.05891600,              !- Vertex 4 X-coordinate {m}
    0.00000000,              !- Vertex 4 Y-coordinate {m}
    4.01320000;              !- Vertex 4 Z-coordinate {m}

FenestrationSurface:Detailed,
    HIBO CWC LabA Spandrel Frame Top,  !- Name
    Door,                    !- Surface Type
    HIBO Exterior Aluminum Frame Strip,  !- Construction Name
    Surface 55,              !- Building Surface Name
    ,                        !- Outside Boundary Condition Object
    autocalculate,           !- View Factor to Ground
    ,                        !- Frame and Divider Name
    1,                       !- Multiplier
    4,                       !- Number of Vertices
    7.19328000,              !- Vertex 1 X-coordinate {m}
    0.00000000,              !- Vertex 1 Y-coordinate {m}
    4.06400000,              !- Vertex 1 Z-coordinate {m}
    7.19328000,              !- Vertex 2 X-coordinate {m}
    0.00000000,              !- Vertex 2 Y-coordinate {m}
    4.01320000,              !- Vertex 2 Z-coordinate {m}
    10.85088000,             !- Vertex 3 X-coordinate {m}
    0.00000000,              !- Vertex 3 Y-coordinate {m}
    4.01320000,              !- Vertex 3 Z-coordinate {m}
    10.85088000,             !- Vertex 4 X-coordinate {m}
    0.00000000,              !- Vertex 4 Y-coordinate {m}
    4.06400000;              !- Vertex 4 Z-coordinate {m}

FenestrationSurface:Detailed,
    HIBO CWC LabA Spandrel Frame Left,  !- Name
    Door,                    !- Surface Type
    HIBO Exterior Aluminum Frame Strip,  !- Construction Name
    Surface 55,              !- Building Surface Name
    ,                        !- Outside Boundary Condition Object
    autocalculate,           !- View Factor to Ground
    ,                        !- Frame and Divider Name
    1,                       !- Multiplier
    4,                       !- Number of Vertices
    7.19328000,              !- Vertex 1 X-coordinate {m}
    0.00000000,              !- Vertex 1 Y-coordinate {m}
    4.01320000,              !- Vertex 1 Z-coordinate {m}
    7.19328000,              !- Vertex 2 X-coordinate {m}
    0.00000000,              !- Vertex 2 Y-coordinate {m}
    3.04800000,              !- Vertex 2 Z-coordinate {m}
    7.24408000,              !- Vertex 3 X-coordinate {m}
    0.00000000,              !- Vertex 3 Y-coordinate {m}
    3.04800000,              !- Vertex 3 Z-coordinate {m}
    7.24408000,              !- Vertex 4 X-coordinate {m}
    0.00000000,              !- Vertex 4 Y-coordinate {m}
    4.01320000;              !- Vertex 4 Z-coordinate {m}

FenestrationSurface:Detailed,
    HIBO CWC LabA Spandrel Frame Right,  !- Name
    Door,                    !- Surface Type
    HIBO Exterior Aluminum Frame Strip,  !- Construction Name
    Surface 55,              !- Building Surface Name
    ,                        !- Outside Boundary Condition Object
    autocalculate,           !- View Factor to Ground
    ,                        !- Frame and Divider Name
    1,                       !- Multiplier
    4,                       !- Number of Vertices
    10.80008000,             !- Vertex 1 X-coordinate {m}
    0.00000000,              !- Vertex 1 Y-coordinate {m}
    4.01320000,              !- Vertex 1 Z-coordinate {m}
    10.80008000,             !- Vertex 2 X-coordinate {m}
    0.00000000,              !- Vertex 2 Y-coordinate {m}
    3.04800000,              !- Vertex 2 Z-coordinate {m}
    10.85088000,             !- Vertex 3 X-coordinate {m}
    0.00000000,              !- Vertex 3 Y-coordinate {m}
    3.04800000,              !- Vertex 3 Z-coordinate {m}
    10.85088000,             !- Vertex 4 X-coordinate {m}
    0.00000000,              !- Vertex 4 Y-coordinate {m}
    4.01320000;              !- Vertex 4 Z-coordinate {m}

FenestrationSurface:Detailed,
    HIBO CWC LabA Opaque Spandrel 1,  !- Name
    Door,                    !- Surface Type
    HIBO ITSG Opaque Panel,  !- Construction Name
    Surface 55,              !- Building Surface Name
    ,                        !- Outside Boundary Condition Object
    autocalculate,           !- View Factor to Ground
    ,                        !- Frame and Divider Name
    1,                       !- Multiplier
    4,                       !- Number of Vertices
    7.24408000,              !- Vertex 1 X-coordinate {m}
    0.00000000,              !- Vertex 1 Y-coordinate {m}
    4.01320000,              !- Vertex 1 Z-coordinate {m}
    7.24408000,              !- Vertex 2 X-coordinate {m}
    0.00000000,              !- Vertex 2 Y-coordinate {m}
    3.04800000,              !- Vertex 2 Z-coordinate {m}
    8.09498000,              !- Vertex 3 X-coordinate {m}
    0.00000000,              !- Vertex 3 Y-coordinate {m}
    3.04800000,              !- Vertex 3 Z-coordinate {m}
    8.09498000,              !- Vertex 4 X-coordinate {m}
    0.00000000,              !- Vertex 4 Y-coordinate {m}
    4.01320000;              !- Vertex 4 Z-coordinate {m}

FenestrationSurface:Detailed,
    HIBO CWC LabA Spandrel Mullion 1,  !- Name
    Door,                    !- Surface Type
    HIBO Exterior Aluminum Frame Strip,  !- Construction Name
    Surface 55,              !- Building Surface Name
    ,                        !- Outside Boundary Condition Object
    autocalculate,           !- View Factor to Ground
    ,                        !- Frame and Divider Name
    1,                       !- Multiplier
    4,                       !- Number of Vertices
    8.09498000,              !- Vertex 1 X-coordinate {m}
    0.00000000,              !- Vertex 1 Y-coordinate {m}
    4.01320000,              !- Vertex 1 Z-coordinate {m}
    8.09498000,              !- Vertex 2 X-coordinate {m}
    0.00000000,              !- Vertex 2 Y-coordinate {m}
    3.04800000,              !- Vertex 2 Z-coordinate {m}
    8.14578000,              !- Vertex 3 X-coordinate {m}
    0.00000000,              !- Vertex 3 Y-coordinate {m}
    3.04800000,              !- Vertex 3 Z-coordinate {m}
    8.14578000,              !- Vertex 4 X-coordinate {m}
    0.00000000,              !- Vertex 4 Y-coordinate {m}
    4.01320000;              !- Vertex 4 Z-coordinate {m}

FenestrationSurface:Detailed,
    HIBO CWC LabA Opaque Spandrel 2,  !- Name
    Door,                    !- Surface Type
    HIBO ITSG Opaque Panel,  !- Construction Name
    Surface 55,              !- Building Surface Name
    ,                        !- Outside Boundary Condition Object
    autocalculate,           !- View Factor to Ground
    ,                        !- Frame and Divider Name
    1,                       !- Multiplier
    4,                       !- Number of Vertices
    8.14578000,              !- Vertex 1 X-coordinate {m}
    0.00000000,              !- Vertex 1 Y-coordinate {m}
    4.01320000,              !- Vertex 1 Z-coordinate {m}
    8.14578000,              !- Vertex 2 X-coordinate {m}
    0.00000000,              !- Vertex 2 Y-coordinate {m}
    3.04800000,              !- Vertex 2 Z-coordinate {m}
    8.99668000,              !- Vertex 3 X-coordinate {m}
    0.00000000,              !- Vertex 3 Y-coordinate {m}
    3.04800000,              !- Vertex 3 Z-coordinate {m}
    8.99668000,              !- Vertex 4 X-coordinate {m}
    0.00000000,              !- Vertex 4 Y-coordinate {m}
    4.01320000;              !- Vertex 4 Z-coordinate {m}

FenestrationSurface:Detailed,
    HIBO CWC LabA Spandrel Mullion 2,  !- Name
    Door,                    !- Surface Type
    HIBO Exterior Aluminum Frame Strip,  !- Construction Name
    Surface 55,              !- Building Surface Name
    ,                        !- Outside Boundary Condition Object
    autocalculate,           !- View Factor to Ground
    ,                        !- Frame and Divider Name
    1,                       !- Multiplier
    4,                       !- Number of Vertices
    8.99668000,              !- Vertex 1 X-coordinate {m}
    0.00000000,              !- Vertex 1 Y-coordinate {m}
    4.01320000,              !- Vertex 1 Z-coordinate {m}
    8.99668000,              !- Vertex 2 X-coordinate {m}
    0.00000000,              !- Vertex 2 Y-coordinate {m}
    3.04800000,              !- Vertex 2 Z-coordinate {m}
    9.04748000,              !- Vertex 3 X-coordinate {m}
    0.00000000,              !- Vertex 3 Y-coordinate {m}
    3.04800000,              !- Vertex 3 Z-coordinate {m}
    9.04748000,              !- Vertex 4 X-coordinate {m}
    0.00000000,              !- Vertex 4 Y-coordinate {m}
    4.01320000;              !- Vertex 4 Z-coordinate {m}

FenestrationSurface:Detailed,
    HIBO CWC LabA Opaque Spandrel 3,  !- Name
    Door,                    !- Surface Type
    HIBO ITSG Opaque Panel,  !- Construction Name
    Surface 55,              !- Building Surface Name
    ,                        !- Outside Boundary Condition Object
    autocalculate,           !- View Factor to Ground
    ,                        !- Frame and Divider Name
    1,                       !- Multiplier
    4,                       !- Number of Vertices
    9.04748000,              !- Vertex 1 X-coordinate {m}
    0.00000000,              !- Vertex 1 Y-coordinate {m}
    4.01320000,              !- Vertex 1 Z-coordinate {m}
    9.04748000,              !- Vertex 2 X-coordinate {m}
    0.00000000,              !- Vertex 2 Y-coordinate {m}
    3.04800000,              !- Vertex 2 Z-coordinate {m}
    9.89838000,              !- Vertex 3 X-coordinate {m}
    0.00000000,              !- Vertex 3 Y-coordinate {m}
    3.04800000,              !- Vertex 3 Z-coordinate {m}
    9.89838000,              !- Vertex 4 X-coordinate {m}
    0.00000000,              !- Vertex 4 Y-coordinate {m}
    4.01320000;              !- Vertex 4 Z-coordinate {m}

FenestrationSurface:Detailed,
    HIBO CWC LabA Spandrel Mullion 3,  !- Name
    Door,                    !- Surface Type
    HIBO Exterior Aluminum Frame Strip,  !- Construction Name
    Surface 55,              !- Building Surface Name
    ,                        !- Outside Boundary Condition Object
    autocalculate,           !- View Factor to Ground
    ,                        !- Frame and Divider Name
    1,                       !- Multiplier
    4,                       !- Number of Vertices
    9.89838000,              !- Vertex 1 X-coordinate {m}
    0.00000000,              !- Vertex 1 Y-coordinate {m}
    4.01320000,              !- Vertex 1 Z-coordinate {m}
    9.89838000,              !- Vertex 2 X-coordinate {m}
    0.00000000,              !- Vertex 2 Y-coordinate {m}
    3.04800000,              !- Vertex 2 Z-coordinate {m}
    9.94918000,              !- Vertex 3 X-coordinate {m}
    0.00000000,              !- Vertex 3 Y-coordinate {m}
    3.04800000,              !- Vertex 3 Z-coordinate {m}
    9.94918000,              !- Vertex 4 X-coordinate {m}
    0.00000000,              !- Vertex 4 Y-coordinate {m}
    4.01320000;              !- Vertex 4 Z-coordinate {m}

FenestrationSurface:Detailed,
    HIBO CWC LabA Opaque Spandrel 4,  !- Name
    Door,                    !- Surface Type
    HIBO ITSG Opaque Panel,  !- Construction Name
    Surface 55,              !- Building Surface Name
    ,                        !- Outside Boundary Condition Object
    autocalculate,           !- View Factor to Ground
    ,                        !- Frame and Divider Name
    1,                       !- Multiplier
    4,                       !- Number of Vertices
    9.94918000,              !- Vertex 1 X-coordinate {m}
    0.00000000,              !- Vertex 1 Y-coordinate {m}
    4.01320000,              !- Vertex 1 Z-coordinate {m}
    9.94918000,              !- Vertex 2 X-coordinate {m}
    0.00000000,              !- Vertex 2 Y-coordinate {m}
    3.04800000,              !- Vertex 2 Z-coordinate {m}
    10.80008000,             !- Vertex 3 X-coordinate {m}
    0.00000000,              !- Vertex 3 Y-coordinate {m}
    3.04800000,              !- Vertex 3 Z-coordinate {m}
    10.80008000,             !- Vertex 4 X-coordinate {m}
    0.00000000,              !- Vertex 4 Y-coordinate {m}
    4.01320000;              !- Vertex 4 Z-coordinate {m}

FenestrationSurface:Detailed,
    HIBO CWA LabB West Frame Bottom,  !- Name
    Door,                    !- Surface Type
    HIBO Exterior Aluminum Frame Strip,  !- Construction Name
    Surface 70 Ext,          !- Building Surface Name
    ,                        !- Outside Boundary Condition Object
    autocalculate,           !- View Factor to Ground
    ,                        !- Frame and Divider Name
    1,                       !- Multiplier
    4,                       !- Number of Vertices
    0.00000000,              !- Vertex 1 X-coordinate {m}
    2.83510000,              !- Vertex 1 Y-coordinate {m}
    0.45720000,              !- Vertex 1 Z-coordinate {m}
    0.00000000,              !- Vertex 2 X-coordinate {m}
    2.83510000,              !- Vertex 2 Y-coordinate {m}
    0.40640000,              !- Vertex 2 Z-coordinate {m}
    0.00000000,              !- Vertex 3 X-coordinate {m}
    1.81910000,              !- Vertex 3 Y-coordinate {m}
    0.40640000,              !- Vertex 3 Z-coordinate {m}
    0.00000000,              !- Vertex 4 X-coordinate {m}
    1.81910000,              !- Vertex 4 Y-coordinate {m}
    0.45720000;              !- Vertex 4 Z-coordinate {m}

FenestrationSurface:Detailed,
    HIBO CWA LabB West Frame Top,  !- Name
    Door,                    !- Surface Type
    HIBO Exterior Aluminum Frame Strip,  !- Construction Name
    Surface 70 Ext,          !- Building Surface Name
    ,                        !- Outside Boundary Condition Object
    autocalculate,           !- View Factor to Ground
    ,                        !- Frame and Divider Name
    1,                       !- Multiplier
    4,                       !- Number of Vertices
    0.00000000,              !- Vertex 1 X-coordinate {m}
    2.83510000,              !- Vertex 1 Y-coordinate {m}
    2.84480000,              !- Vertex 1 Z-coordinate {m}
    0.00000000,              !- Vertex 2 X-coordinate {m}
    2.83510000,              !- Vertex 2 Y-coordinate {m}
    2.79400000,              !- Vertex 2 Z-coordinate {m}
    0.00000000,              !- Vertex 3 X-coordinate {m}
    1.81910000,              !- Vertex 3 Y-coordinate {m}
    2.79400000,              !- Vertex 3 Z-coordinate {m}
    0.00000000,              !- Vertex 4 X-coordinate {m}
    1.81910000,              !- Vertex 4 Y-coordinate {m}
    2.84480000;              !- Vertex 4 Z-coordinate {m}

FenestrationSurface:Detailed,
    HIBO CWA LabB West Frame Left,  !- Name
    Door,                    !- Surface Type
    HIBO Exterior Aluminum Frame Strip,  !- Construction Name
    Surface 70 Ext,          !- Building Surface Name
    ,                        !- Outside Boundary Condition Object
    autocalculate,           !- View Factor to Ground
    ,                        !- Frame and Divider Name
    1,                       !- Multiplier
    4,                       !- Number of Vertices
    0.00000000,              !- Vertex 1 X-coordinate {m}
    1.86990000,              !- Vertex 1 Y-coordinate {m}
    2.79400000,              !- Vertex 1 Z-coordinate {m}
    0.00000000,              !- Vertex 2 X-coordinate {m}
    1.86990000,              !- Vertex 2 Y-coordinate {m}
    0.45720000,              !- Vertex 2 Z-coordinate {m}
    0.00000000,              !- Vertex 3 X-coordinate {m}
    1.81910000,              !- Vertex 3 Y-coordinate {m}
    0.45720000,              !- Vertex 3 Z-coordinate {m}
    0.00000000,              !- Vertex 4 X-coordinate {m}
    1.81910000,              !- Vertex 4 Y-coordinate {m}
    2.79400000;              !- Vertex 4 Z-coordinate {m}

FenestrationSurface:Detailed,
    HIBO CWA LabB West Frame Right,  !- Name
    Door,                    !- Surface Type
    HIBO Exterior Aluminum Frame Strip,  !- Construction Name
    Surface 70 Ext,          !- Building Surface Name
    ,                        !- Outside Boundary Condition Object
    autocalculate,           !- View Factor to Ground
    ,                        !- Frame and Divider Name
    1,                       !- Multiplier
    4,                       !- Number of Vertices
    0.00000000,              !- Vertex 1 X-coordinate {m}
    2.83510000,              !- Vertex 1 Y-coordinate {m}
    2.79400000,              !- Vertex 1 Z-coordinate {m}
    0.00000000,              !- Vertex 2 X-coordinate {m}
    2.83510000,              !- Vertex 2 Y-coordinate {m}
    0.45720000,              !- Vertex 2 Z-coordinate {m}
    0.00000000,              !- Vertex 3 X-coordinate {m}
    2.78430000,              !- Vertex 3 Y-coordinate {m}
    0.45720000,              !- Vertex 3 Z-coordinate {m}
    0.00000000,              !- Vertex 4 X-coordinate {m}
    2.78430000,              !- Vertex 4 Y-coordinate {m}
    2.79400000;              !- Vertex 4 Z-coordinate {m}

FenestrationSurface:Detailed,
    HIBO CWA LabB West Lower CTIG,  !- Name
    Window,                  !- Surface Type
    EXT_Window_SN54,         !- Construction Name
    Surface 70 Ext,          !- Building Surface Name
    ,                        !- Outside Boundary Condition Object
    autocalculate,           !- View Factor to Ground
    ,                        !- Frame and Divider Name
    1,                       !- Multiplier
    4,                       !- Number of Vertices
    0.00000000,              !- Vertex 1 X-coordinate {m}
    2.78430000,              !- Vertex 1 Y-coordinate {m}
    1.27000000,              !- Vertex 1 Z-coordinate {m}
    0.00000000,              !- Vertex 2 X-coordinate {m}
    2.78430000,              !- Vertex 2 Y-coordinate {m}
    0.45720000,              !- Vertex 2 Z-coordinate {m}
    0.00000000,              !- Vertex 3 X-coordinate {m}
    1.86990000,              !- Vertex 3 Y-coordinate {m}
    0.45720000,              !- Vertex 3 Z-coordinate {m}
    0.00000000,              !- Vertex 4 X-coordinate {m}
    1.86990000,              !- Vertex 4 Y-coordinate {m}
    1.27000000;              !- Vertex 4 Z-coordinate {m}

FenestrationSurface:Detailed,
    HIBO CWA LabB West Upper CTIG,  !- Name
    Window,                  !- Surface Type
    EXT_Window_SN54,         !- Construction Name
    Surface 70 Ext,          !- Building Surface Name
    ,                        !- Outside Boundary Condition Object
    autocalculate,           !- View Factor to Ground
    ,                        !- Frame and Divider Name
    1,                       !- Multiplier
    4,                       !- Number of Vertices
    0.00000000,              !- Vertex 1 X-coordinate {m}
    2.78430000,              !- Vertex 1 Y-coordinate {m}
    2.79400000,              !- Vertex 1 Z-coordinate {m}
    0.00000000,              !- Vertex 2 X-coordinate {m}
    2.78430000,              !- Vertex 2 Y-coordinate {m}
    1.32080000,              !- Vertex 2 Z-coordinate {m}
    0.00000000,              !- Vertex 3 X-coordinate {m}
    1.86990000,              !- Vertex 3 Y-coordinate {m}
    1.32080000,              !- Vertex 3 Z-coordinate {m}
    0.00000000,              !- Vertex 4 X-coordinate {m}
    1.86990000,              !- Vertex 4 Y-coordinate {m}
    2.79400000;              !- Vertex 4 Z-coordinate {m}

FenestrationSurface:Detailed,
    HIBO CWA LabB West Horizontal Mullion,  !- Name
    Door,                    !- Surface Type
    HIBO Exterior Aluminum Frame Strip,  !- Construction Name
    Surface 70 Ext,          !- Building Surface Name
    ,                        !- Outside Boundary Condition Object
    autocalculate,           !- View Factor to Ground
    ,                        !- Frame and Divider Name
    1,                       !- Multiplier
    4,                       !- Number of Vertices
    0.00000000,              !- Vertex 1 X-coordinate {m}
    2.78430000,              !- Vertex 1 Y-coordinate {m}
    1.32080000,              !- Vertex 1 Z-coordinate {m}
    0.00000000,              !- Vertex 2 X-coordinate {m}
    2.78430000,              !- Vertex 2 Y-coordinate {m}
    1.27000000,              !- Vertex 2 Z-coordinate {m}
    0.00000000,              !- Vertex 3 X-coordinate {m}
    1.86990000,              !- Vertex 3 Y-coordinate {m}
    1.27000000,              !- Vertex 3 Z-coordinate {m}
    0.00000000,              !- Vertex 4 X-coordinate {m}
    1.86990000,              !- Vertex 4 Y-coordinate {m}
    1.32080000;              !- Vertex 4 Z-coordinate {m}

FenestrationSurface:Detailed,
    HIBO CWA LabA East Frame Bottom,  !- Name
    Door,                    !- Surface Type
    HIBO Exterior Aluminum Frame Strip,  !- Construction Name
    Surface 67 Ext,          !- Building Surface Name
    ,                        !- Outside Boundary Condition Object
    autocalculate,           !- View Factor to Ground
    ,                        !- Frame and Divider Name
    1,                       !- Multiplier
    4,                       !- Number of Vertices
    11.00023200,             !- Vertex 1 X-coordinate {m}
    1.81910000,              !- Vertex 1 Y-coordinate {m}
    0.45720000,              !- Vertex 1 Z-coordinate {m}
    11.00023200,             !- Vertex 2 X-coordinate {m}
    1.81910000,              !- Vertex 2 Y-coordinate {m}
    0.40640000,              !- Vertex 2 Z-coordinate {m}
    11.00023200,             !- Vertex 3 X-coordinate {m}
    2.83510000,              !- Vertex 3 Y-coordinate {m}
    0.40640000,              !- Vertex 3 Z-coordinate {m}
    11.00023200,             !- Vertex 4 X-coordinate {m}
    2.83510000,              !- Vertex 4 Y-coordinate {m}
    0.45720000;              !- Vertex 4 Z-coordinate {m}

FenestrationSurface:Detailed,
    HIBO CWA LabA East Frame Top,  !- Name
    Door,                    !- Surface Type
    HIBO Exterior Aluminum Frame Strip,  !- Construction Name
    Surface 67 Ext,          !- Building Surface Name
    ,                        !- Outside Boundary Condition Object
    autocalculate,           !- View Factor to Ground
    ,                        !- Frame and Divider Name
    1,                       !- Multiplier
    4,                       !- Number of Vertices
    11.00023200,             !- Vertex 1 X-coordinate {m}
    1.81910000,              !- Vertex 1 Y-coordinate {m}
    2.84480000,              !- Vertex 1 Z-coordinate {m}
    11.00023200,             !- Vertex 2 X-coordinate {m}
    1.81910000,              !- Vertex 2 Y-coordinate {m}
    2.79400000,              !- Vertex 2 Z-coordinate {m}
    11.00023200,             !- Vertex 3 X-coordinate {m}
    2.83510000,              !- Vertex 3 Y-coordinate {m}
    2.79400000,              !- Vertex 3 Z-coordinate {m}
    11.00023200,             !- Vertex 4 X-coordinate {m}
    2.83510000,              !- Vertex 4 Y-coordinate {m}
    2.84480000;              !- Vertex 4 Z-coordinate {m}

FenestrationSurface:Detailed,
    HIBO CWA LabA East Frame Left,  !- Name
    Door,                    !- Surface Type
    HIBO Exterior Aluminum Frame Strip,  !- Construction Name
    Surface 67 Ext,          !- Building Surface Name
    ,                        !- Outside Boundary Condition Object
    autocalculate,           !- View Factor to Ground
    ,                        !- Frame and Divider Name
    1,                       !- Multiplier
    4,                       !- Number of Vertices
    11.00023200,             !- Vertex 1 X-coordinate {m}
    1.81910000,              !- Vertex 1 Y-coordinate {m}
    2.79400000,              !- Vertex 1 Z-coordinate {m}
    11.00023200,             !- Vertex 2 X-coordinate {m}
    1.81910000,              !- Vertex 2 Y-coordinate {m}
    0.45720000,              !- Vertex 2 Z-coordinate {m}
    11.00023200,             !- Vertex 3 X-coordinate {m}
    1.86990000,              !- Vertex 3 Y-coordinate {m}
    0.45720000,              !- Vertex 3 Z-coordinate {m}
    11.00023200,             !- Vertex 4 X-coordinate {m}
    1.86990000,              !- Vertex 4 Y-coordinate {m}
    2.79400000;              !- Vertex 4 Z-coordinate {m}

FenestrationSurface:Detailed,
    HIBO CWA LabA East Frame Right,  !- Name
    Door,                    !- Surface Type
    HIBO Exterior Aluminum Frame Strip,  !- Construction Name
    Surface 67 Ext,          !- Building Surface Name
    ,                        !- Outside Boundary Condition Object
    autocalculate,           !- View Factor to Ground
    ,                        !- Frame and Divider Name
    1,                       !- Multiplier
    4,                       !- Number of Vertices
    11.00023200,             !- Vertex 1 X-coordinate {m}
    2.78430000,              !- Vertex 1 Y-coordinate {m}
    2.79400000,              !- Vertex 1 Z-coordinate {m}
    11.00023200,             !- Vertex 2 X-coordinate {m}
    2.78430000,              !- Vertex 2 Y-coordinate {m}
    0.45720000,              !- Vertex 2 Z-coordinate {m}
    11.00023200,             !- Vertex 3 X-coordinate {m}
    2.83510000,              !- Vertex 3 Y-coordinate {m}
    0.45720000,              !- Vertex 3 Z-coordinate {m}
    11.00023200,             !- Vertex 4 X-coordinate {m}
    2.83510000,              !- Vertex 4 Y-coordinate {m}
    2.79400000;              !- Vertex 4 Z-coordinate {m}

FenestrationSurface:Detailed,
    HIBO CWA LabA East Lower CTIG,  !- Name
    Window,                  !- Surface Type
    EXT_Window_SN54,         !- Construction Name
    Surface 67 Ext,          !- Building Surface Name
    ,                        !- Outside Boundary Condition Object
    autocalculate,           !- View Factor to Ground
    ,                        !- Frame and Divider Name
    1,                       !- Multiplier
    4,                       !- Number of Vertices
    11.00023200,             !- Vertex 1 X-coordinate {m}
    1.86990000,              !- Vertex 1 Y-coordinate {m}
    1.27000000,              !- Vertex 1 Z-coordinate {m}
    11.00023200,             !- Vertex 2 X-coordinate {m}
    1.86990000,              !- Vertex 2 Y-coordinate {m}
    0.45720000,              !- Vertex 2 Z-coordinate {m}
    11.00023200,             !- Vertex 3 X-coordinate {m}
    2.78430000,              !- Vertex 3 Y-coordinate {m}
    0.45720000,              !- Vertex 3 Z-coordinate {m}
    11.00023200,             !- Vertex 4 X-coordinate {m}
    2.78430000,              !- Vertex 4 Y-coordinate {m}
    1.27000000;              !- Vertex 4 Z-coordinate {m}

FenestrationSurface:Detailed,
    HIBO CWA LabA East Upper CTIG,  !- Name
    Window,                  !- Surface Type
    EXT_Window_SN54,         !- Construction Name
    Surface 67 Ext,          !- Building Surface Name
    ,                        !- Outside Boundary Condition Object
    autocalculate,           !- View Factor to Ground
    ,                        !- Frame and Divider Name
    1,                       !- Multiplier
    4,                       !- Number of Vertices
    11.00023200,             !- Vertex 1 X-coordinate {m}
    1.86990000,              !- Vertex 1 Y-coordinate {m}
    2.79400000,              !- Vertex 1 Z-coordinate {m}
    11.00023200,             !- Vertex 2 X-coordinate {m}
    1.86990000,              !- Vertex 2 Y-coordinate {m}
    1.32080000,              !- Vertex 2 Z-coordinate {m}
    11.00023200,             !- Vertex 3 X-coordinate {m}
    2.78430000,              !- Vertex 3 Y-coordinate {m}
    1.32080000,              !- Vertex 3 Z-coordinate {m}
    11.00023200,             !- Vertex 4 X-coordinate {m}
    2.78430000,              !- Vertex 4 Y-coordinate {m}
    2.79400000;              !- Vertex 4 Z-coordinate {m}

FenestrationSurface:Detailed,
    HIBO CWA LabA East Horizontal Mullion,  !- Name
    Door,                    !- Surface Type
    HIBO Exterior Aluminum Frame Strip,  !- Construction Name
    Surface 67 Ext,          !- Building Surface Name
    ,                        !- Outside Boundary Condition Object
    autocalculate,           !- View Factor to Ground
    ,                        !- Frame and Divider Name
    1,                       !- Multiplier
    4,                       !- Number of Vertices
    11.00023200,             !- Vertex 1 X-coordinate {m}
    1.86990000,              !- Vertex 1 Y-coordinate {m}
    1.32080000,              !- Vertex 1 Z-coordinate {m}
    11.00023200,             !- Vertex 2 X-coordinate {m}
    1.86990000,              !- Vertex 2 Y-coordinate {m}
    1.27000000,              !- Vertex 2 Z-coordinate {m}
    11.00023200,             !- Vertex 3 X-coordinate {m}
    2.78430000,              !- Vertex 3 Y-coordinate {m}
    1.27000000,              !- Vertex 3 Z-coordinate {m}
    11.00023200,             !- Vertex 4 X-coordinate {m}
    2.78430000,              !- Vertex 4 Y-coordinate {m}
    1.32080000;              !- Vertex 4 Z-coordinate {m}

FenestrationSurface:Detailed,
    HIBO N1 Leaf Stiles and Rails Bottom,  !- Name
    Door,                    !- Surface Type
    HIBO Exterior Aluminum Frame Strip,  !- Construction Name
    Surface 24 Ext,          !- Building Surface Name
    ,                        !- Outside Boundary Condition Object
    autocalculate,           !- View Factor to Ground
    ,                        !- Frame and Divider Name
    1,                       !- Multiplier
    4,                       !- Number of Vertices
    5.87959200,              !- Vertex 1 X-coordinate {m}
    6.91286400,              !- Vertex 1 Y-coordinate {m}
    0.05080000,              !- Vertex 1 Z-coordinate {m}
    5.87959200,              !- Vertex 2 X-coordinate {m}
    6.91286400,              !- Vertex 2 Y-coordinate {m}
    0.00000000,              !- Vertex 2 Z-coordinate {m}
    4.96519200,              !- Vertex 3 X-coordinate {m}
    6.91286400,              !- Vertex 3 Y-coordinate {m}
    0.00000000,              !- Vertex 3 Z-coordinate {m}
    4.96519200,              !- Vertex 4 X-coordinate {m}
    6.91286400,              !- Vertex 4 Y-coordinate {m}
    0.05080000;              !- Vertex 4 Z-coordinate {m}

FenestrationSurface:Detailed,
    HIBO N1 Leaf Stiles and Rails Top,  !- Name
    Door,                    !- Surface Type
    HIBO Exterior Aluminum Frame Strip,  !- Construction Name
    Surface 24 Ext,          !- Building Surface Name
    ,                        !- Outside Boundary Condition Object
    autocalculate,           !- View Factor to Ground
    ,                        !- Frame and Divider Name
    1,                       !- Multiplier
    4,                       !- Number of Vertices
    5.87959200,              !- Vertex 1 X-coordinate {m}
    6.91286400,              !- Vertex 1 Y-coordinate {m}
    2.18440000,              !- Vertex 1 Z-coordinate {m}
    5.87959200,              !- Vertex 2 X-coordinate {m}
    6.91286400,              !- Vertex 2 Y-coordinate {m}
    2.13360000,              !- Vertex 2 Z-coordinate {m}
    4.96519200,              !- Vertex 3 X-coordinate {m}
    6.91286400,              !- Vertex 3 Y-coordinate {m}
    2.13360000,              !- Vertex 3 Z-coordinate {m}
    4.96519200,              !- Vertex 4 X-coordinate {m}
    6.91286400,              !- Vertex 4 Y-coordinate {m}
    2.18440000;              !- Vertex 4 Z-coordinate {m}

FenestrationSurface:Detailed,
    HIBO N1 Leaf Stiles and Rails Left,  !- Name
    Door,                    !- Surface Type
    HIBO Exterior Aluminum Frame Strip,  !- Construction Name
    Surface 24 Ext,          !- Building Surface Name
    ,                        !- Outside Boundary Condition Object
    autocalculate,           !- View Factor to Ground
    ,                        !- Frame and Divider Name
    1,                       !- Multiplier
    4,                       !- Number of Vertices
    5.01599200,              !- Vertex 1 X-coordinate {m}
    6.91286400,              !- Vertex 1 Y-coordinate {m}
    2.13360000,              !- Vertex 1 Z-coordinate {m}
    5.01599200,              !- Vertex 2 X-coordinate {m}
    6.91286400,              !- Vertex 2 Y-coordinate {m}
    0.05080000,              !- Vertex 2 Z-coordinate {m}
    4.96519200,              !- Vertex 3 X-coordinate {m}
    6.91286400,              !- Vertex 3 Y-coordinate {m}
    0.05080000,              !- Vertex 3 Z-coordinate {m}
    4.96519200,              !- Vertex 4 X-coordinate {m}
    6.91286400,              !- Vertex 4 Y-coordinate {m}
    2.13360000;              !- Vertex 4 Z-coordinate {m}

FenestrationSurface:Detailed,
    HIBO N1 Leaf Stiles and Rails Right,  !- Name
    Door,                    !- Surface Type
    HIBO Exterior Aluminum Frame Strip,  !- Construction Name
    Surface 24 Ext,          !- Building Surface Name
    ,                        !- Outside Boundary Condition Object
    autocalculate,           !- View Factor to Ground
    ,                        !- Frame and Divider Name
    1,                       !- Multiplier
    4,                       !- Number of Vertices
    5.87959200,              !- Vertex 1 X-coordinate {m}
    6.91286400,              !- Vertex 1 Y-coordinate {m}
    2.13360000,              !- Vertex 1 Z-coordinate {m}
    5.87959200,              !- Vertex 2 X-coordinate {m}
    6.91286400,              !- Vertex 2 Y-coordinate {m}
    0.05080000,              !- Vertex 2 Z-coordinate {m}
    5.82879200,              !- Vertex 3 X-coordinate {m}
    6.91286400,              !- Vertex 3 Y-coordinate {m}
    0.05080000,              !- Vertex 3 Z-coordinate {m}
    5.82879200,              !- Vertex 4 X-coordinate {m}
    6.91286400,              !- Vertex 4 Y-coordinate {m}
    2.13360000;              !- Vertex 4 Z-coordinate {m}

FenestrationSurface:Detailed,
    HIBO N1 Lower CTIG,      !- Name
    GlassDoor,               !- Surface Type
    EXT_Window_SN54,         !- Construction Name
    Surface 24 Ext,          !- Building Surface Name
    ,                        !- Outside Boundary Condition Object
    autocalculate,           !- View Factor to Ground
    ,                        !- Frame and Divider Name
    1,                       !- Multiplier
    4,                       !- Number of Vertices
    5.82879200,              !- Vertex 1 X-coordinate {m}
    6.91286400,              !- Vertex 1 Y-coordinate {m}
    1.06680000,              !- Vertex 1 Z-coordinate {m}
    5.82879200,              !- Vertex 2 X-coordinate {m}
    6.91286400,              !- Vertex 2 Y-coordinate {m}
    0.05080000,              !- Vertex 2 Z-coordinate {m}
    5.01599200,              !- Vertex 3 X-coordinate {m}
    6.91286400,              !- Vertex 3 Y-coordinate {m}
    0.05080000,              !- Vertex 3 Z-coordinate {m}
    5.01599200,              !- Vertex 4 X-coordinate {m}
    6.91286400,              !- Vertex 4 Y-coordinate {m}
    1.06680000;              !- Vertex 4 Z-coordinate {m}

FenestrationSurface:Detailed,
    HIBO N1 Upper CTIG,      !- Name
    GlassDoor,               !- Surface Type
    EXT_Window_SN54,         !- Construction Name
    Surface 24 Ext,          !- Building Surface Name
    ,                        !- Outside Boundary Condition Object
    autocalculate,           !- View Factor to Ground
    ,                        !- Frame and Divider Name
    1,                       !- Multiplier
    4,                       !- Number of Vertices
    5.82879200,              !- Vertex 1 X-coordinate {m}
    6.91286400,              !- Vertex 1 Y-coordinate {m}
    2.13360000,              !- Vertex 1 Z-coordinate {m}
    5.82879200,              !- Vertex 2 X-coordinate {m}
    6.91286400,              !- Vertex 2 Y-coordinate {m}
    1.11760000,              !- Vertex 2 Z-coordinate {m}
    5.01599200,              !- Vertex 3 X-coordinate {m}
    6.91286400,              !- Vertex 3 Y-coordinate {m}
    1.11760000,              !- Vertex 3 Z-coordinate {m}
    5.01599200,              !- Vertex 4 X-coordinate {m}
    6.91286400,              !- Vertex 4 Y-coordinate {m}
    2.13360000;              !- Vertex 4 Z-coordinate {m}

FenestrationSurface:Detailed,
    HIBO N1 Center Rail,     !- Name
    Door,                    !- Surface Type
    HIBO Exterior Aluminum Frame Strip,  !- Construction Name
    Surface 24 Ext,          !- Building Surface Name
    ,                        !- Outside Boundary Condition Object
    autocalculate,           !- View Factor to Ground
    ,                        !- Frame and Divider Name
    1,                       !- Multiplier
    4,                       !- Number of Vertices
    5.82879200,              !- Vertex 1 X-coordinate {m}
    6.91286400,              !- Vertex 1 Y-coordinate {m}
    1.11760000,              !- Vertex 1 Z-coordinate {m}
    5.82879200,              !- Vertex 2 X-coordinate {m}
    6.91286400,              !- Vertex 2 Y-coordinate {m}
    1.06680000,              !- Vertex 2 Z-coordinate {m}
    5.01599200,              !- Vertex 3 X-coordinate {m}
    6.91286400,              !- Vertex 3 Y-coordinate {m}
    1.06680000,              !- Vertex 3 Z-coordinate {m}
    5.01599200,              !- Vertex 4 X-coordinate {m}
    6.91286400,              !- Vertex 4 Y-coordinate {m}
    1.11760000;              !- Vertex 4 Z-coordinate {m}


!-   ===========  ALL OBJECTS IN CLASS: WINDOWPROPERTY:FRAMEANDDIVIDER ===========

WindowProperty:FrameAndDivider,
    HIBO CWB Vision Frame,   !- Name
    0.0508,                  !- Frame Width {m}
    0.0,                     !- Frame Outside Projection {m}
    0.0,                     !- Frame Inside Projection {m}
    5.0,                     !- Frame Conductance {W/m2-K}
    1.3,                     !- Ratio of Frame-Edge Glass Conductance to Center-Of-Glass Conductance
    0.40,                    !- Frame Solar Absorptance
    0.40,                    !- Frame Visible Absorptance
    0.90,                    !- Frame Thermal Hemispherical Emissivity
    DividedLite,             !- Divider Type
    0.0508,                  !- Divider Width {m}
    2,                       !- Number of Horizontal Dividers
    0,                       !- Number of Vertical Dividers
    0.0,                     !- Divider Outside Projection {m}
    0.0,                     !- Divider Inside Projection {m}
    5.0,                     !- Divider Conductance {W/m2-K}
    1.3,                     !- Ratio of Divider-Edge Glass Conductance to Center-Of-Glass Conductance
    0.40,                    !- Divider Solar Absorptance
    0.40,                    !- Divider Visible Absorptance
    0.90,                    !- Divider Thermal Hemispherical Emissivity
    0.50,                    !- Outside Reveal Solar Absorptance
    0.0,                     !- Inside Sill Depth {m}
    0.50,                    !- Inside Sill Solar Absorptance
    0.0,                     !- Inside Reveal Depth {m}
    0.50,                    !- Inside Reveal Solar Absorptance
    ;                        !- NFRC Product Type for Assembly Calculations

WindowProperty:FrameAndDivider,
    HIBO CWC Vision Frame,   !- Name
    0.0508,                  !- Frame Width {m}
    0.0,                     !- Frame Outside Projection {m}
    0.0,                     !- Frame Inside Projection {m}
    5.0,                     !- Frame Conductance {W/m2-K}
    1.3,                     !- Ratio of Frame-Edge Glass Conductance to Center-Of-Glass Conductance
    0.40,                    !- Frame Solar Absorptance
    0.40,                    !- Frame Visible Absorptance
    0.90,                    !- Frame Thermal Hemispherical Emissivity
    DividedLite,             !- Divider Type
    0.0508,                  !- Divider Width {m}
    2,                       !- Number of Horizontal Dividers
    3,                       !- Number of Vertical Dividers
    0.0,                     !- Divider Outside Projection {m}
    0.0,                     !- Divider Inside Projection {m}
    5.0,                     !- Divider Conductance {W/m2-K}
    1.3,                     !- Ratio of Divider-Edge Glass Conductance to Center-Of-Glass Conductance
    0.40,                    !- Divider Solar Absorptance
    0.40,                    !- Divider Visible Absorptance
    0.90,                    !- Divider Thermal Hemispherical Emissivity
    0.50,                    !- Outside Reveal Solar Absorptance
    0.0,                     !- Inside Sill Depth {m}
    0.50,                    !- Inside Sill Solar Absorptance
    0.0,                     !- Inside Reveal Depth {m}
    0.50,                    !- Inside Reveal Solar Absorptance
    ;                        !- NFRC Product Type for Assembly Calculations


!-   ===========  ALL OBJECTS IN CLASS: INTERNALMASS ===========

InternalMass,
    HIBO Same-Zone Partition 104,  !- Name
    HIBO Internal Mass Half SA6,  !- Construction Name
    Thermal Zone: Space 102 - Plus,  !- Zone or ZoneList Name
    ,                        !- Space or SpaceList Name
    14.920228224;            !- Surface Area {m2}

InternalMass,
    HIBO Same-Zone Door 104, !- Name
    HIBO Internal Mass Half HM Door,  !- Construction Name
    Thermal Zone: Space 102 - Plus,  !- Zone or ZoneList Name
    ,                        !- Space or SpaceList Name
    3.901927680;             !- Surface Area {m2}

InternalMass,
    HIBO Same-Zone Partition 102,  !- Name
    HIBO Internal Mass Half SA6,  !- Construction Name
    Thermal Zone: Space 102 - Plus,  !- Zone or ZoneList Name
    ,                        !- Space or SpaceList Name
    11.650041216;            !- Surface Area {m2}

InternalMass,
    HIBO Same-Zone Door 102, !- Name
    HIBO Internal Mass Half HM Door,  !- Construction Name
    Thermal Zone: Space 102 - Plus,  !- Zone or ZoneList Name
    ,                        !- Space or SpaceList Name
    3.901927680;             !- Surface Area {m2}


!-   ===========  ALL OBJECTS IN CLASS: SHADING:BUILDING:DETAILED ===========

Shading:Building:Detailed,
    HIBO Upper Parapet South,!- Name
    ,                        !- Transmittance Schedule Name
    4,                       !- Number of Vertices
    0.00000000,              !- Vertex 1 X-coordinate {m}
    0.00000000,              !- Vertex 1 Y-coordinate {m}
    4.72440000,              !- Vertex 1 Z-coordinate {m}
    11.00023200,             !- Vertex 2 X-coordinate {m}
    0.00000000,              !- Vertex 2 Y-coordinate {m}
    4.72440000,              !- Vertex 2 Z-coordinate {m}
    11.00023200,             !- Vertex 3 X-coordinate {m}
    0.00000000,              !- Vertex 3 Y-coordinate {m}
    5.08000000,              !- Vertex 3 Z-coordinate {m}
    0.00000000,              !- Vertex 4 X-coordinate {m}
    0.00000000,              !- Vertex 4 Y-coordinate {m}
    5.08000000;              !- Vertex 4 Z-coordinate {m}

Shading:Building:Detailed,
    HIBO Upper Parapet West, !- Name
    ,                        !- Transmittance Schedule Name
    4,                       !- Number of Vertices
    0.00000000,              !- Vertex 1 X-coordinate {m}
    4.65429600,              !- Vertex 1 Y-coordinate {m}
    4.52120000,              !- Vertex 1 Z-coordinate {m}
    0.00000000,              !- Vertex 2 X-coordinate {m}
    0.00000000,              !- Vertex 2 Y-coordinate {m}
    4.72440000,              !- Vertex 2 Z-coordinate {m}
    0.00000000,              !- Vertex 3 X-coordinate {m}
    0.00000000,              !- Vertex 3 Y-coordinate {m}
    5.08000000,              !- Vertex 3 Z-coordinate {m}
    0.00000000,              !- Vertex 4 X-coordinate {m}
    4.65429600,              !- Vertex 4 Y-coordinate {m}
    5.08000000;              !- Vertex 4 Z-coordinate {m}

Shading:Building:Detailed,
    HIBO Upper Parapet East, !- Name
    ,                        !- Transmittance Schedule Name
    4,                       !- Number of Vertices
    11.00023200,             !- Vertex 1 X-coordinate {m}
    0.00000000,              !- Vertex 1 Y-coordinate {m}
    4.72440000,              !- Vertex 1 Z-coordinate {m}
    11.00023200,             !- Vertex 2 X-coordinate {m}
    4.65429600,              !- Vertex 2 Y-coordinate {m}
    4.52120000,              !- Vertex 2 Z-coordinate {m}
    11.00023200,             !- Vertex 3 X-coordinate {m}
    4.65429600,              !- Vertex 3 Y-coordinate {m}
    5.08000000,              !- Vertex 3 Z-coordinate {m}
    11.00023200,             !- Vertex 4 X-coordinate {m}
    0.00000000,              !- Vertex 4 Y-coordinate {m}
    5.08000000;              !- Vertex 4 Z-coordinate {m}

Shading:Building:Detailed,
    HIBO Upper Parapet NW Shoulder,  !- Name
    ,                        !- Transmittance Schedule Name
    4,                       !- Number of Vertices
    1.82880000,              !- Vertex 1 X-coordinate {m}
    4.65429600,              !- Vertex 1 Y-coordinate {m}
    4.52120000,              !- Vertex 1 Z-coordinate {m}
    0.00000000,              !- Vertex 2 X-coordinate {m}
    4.65429600,              !- Vertex 2 Y-coordinate {m}
    4.52120000,              !- Vertex 2 Z-coordinate {m}
    0.00000000,              !- Vertex 3 X-coordinate {m}
    4.65429600,              !- Vertex 3 Y-coordinate {m}
    5.08000000,              !- Vertex 3 Z-coordinate {m}
    1.82880000,              !- Vertex 4 X-coordinate {m}
    4.65429600,              !- Vertex 4 Y-coordinate {m}
    5.08000000;              !- Vertex 4 Z-coordinate {m}

Shading:Building:Detailed,
    HIBO Upper Parapet NE Shoulder,  !- Name
    ,                        !- Transmittance Schedule Name
    4,                       !- Number of Vertices
    11.00023200,             !- Vertex 1 X-coordinate {m}
    4.65429600,              !- Vertex 1 Y-coordinate {m}
    4.52120000,              !- Vertex 1 Z-coordinate {m}
    9.17143200,              !- Vertex 2 X-coordinate {m}
    4.65429600,              !- Vertex 2 Y-coordinate {m}
    4.52120000,              !- Vertex 2 Z-coordinate {m}
    9.17143200,              !- Vertex 3 X-coordinate {m}
    4.65429600,              !- Vertex 3 Y-coordinate {m}
    5.08000000,              !- Vertex 3 Z-coordinate {m}
    11.00023200,             !- Vertex 4 X-coordinate {m}
    4.65429600,              !- Vertex 4 Y-coordinate {m}
    5.08000000;              !- Vertex 4 Z-coordinate {m}


!-   ===========  ALL OBJECTS IN CLASS: PEOPLE ===========

People,
    Space 103 LAB B People 1,      !- Name
    Thermal Zone: Space 103 LAB B, !- Zone or ZoneList or Space or SpaceList Name
    OCCUPY-1,                !- Number of People Schedule Name
    Area/Person,             !- Number of People Calculation Method
    ,                        !- Number of People
    ,                        !- People per Floor Area {person/m2}
    18.580626,               !- Floor Area per Person {m2/person}
    0.3,                     !- Fraction Radiant
    ,                        !- Sensible Heat Fraction
    ActSchd,                 !- Activity Level Schedule Name
    ,                        !- Carbon Dioxide Generation Rate {m3/s-W}
    No,                      !- Enable ASHRAE 55 Comfort Warnings
    ZoneAveraged;            !- Mean Radiant Temperature Calculation Type

People,
    Space 102 People 1,      !- Name
    Thermal Zone: Space 102 - Plus,  !- Zone or ZoneList or Space or SpaceList Name
    OCCUPY-1,                !- Number of People Schedule Name
    Area/Person,             !- Number of People Calculation Method
    ,                        !- Number of People
    ,                        !- People per Floor Area {person/m2}
    18.580626,               !- Floor Area per Person {m2/person}
    0.3,                     !- Fraction Radiant
    ,                        !- Sensible Heat Fraction
    ActSchd,                 !- Activity Level Schedule Name
    ,                        !- Carbon Dioxide Generation Rate {m3/s-W}
    No,                      !- Enable ASHRAE 55 Comfort Warnings
    ZoneAveraged;            !- Mean Radiant Temperature Calculation Type

People,
    Space 105 LAB A People 1,      !- Name
    Thermal Zone: Space 105 LAB A, !- Zone or ZoneList or Space or SpaceList Name
    OCCUPY-1,                !- Number of People Schedule Name
    Area/Person,             !- Number of People Calculation Method
    ,                        !- Number of People
    ,                        !- People per Floor Area {person/m2}
    18.580626,               !- Floor Area per Person {m2/person}
    0.3,                     !- Fraction Radiant
    ,                        !- Sensible Heat Fraction
    ActSchd,                 !- Activity Level Schedule Name
    ,                        !- Carbon Dioxide Generation Rate {m3/s-W}
    No,                      !- Enable ASHRAE 55 Comfort Warnings
    ZoneAveraged;            !- Mean Radiant Temperature Calculation Type


!-   ===========  ALL OBJECTS IN CLASS: LIGHTS ===========

Lights,
    Space 103 LAB B Lights 1,      !- Name
    Thermal Zone: Space 103 LAB B, !- Zone or ZoneList or Space or SpaceList Name
    ltg_sch_office,          !- Schedule Name
    Watts/Area,              !- Design Level Calculation Method
    ,                        !- Lighting Level {W}
    6.181254,                !- Watts per Zone Floor Area {W/m2}
    ,                        !- Watts per Person {W/person}
    0,                       !- Return Air Fraction
    0.7,                     !- Fraction Radiant
    0.2,                     !- Fraction Visible
    1,                       !- Fraction Replaceable
    LightsWired,             !- End-Use Subcategory
    No;                      !- Return Air Fraction Calculated from Plenum Temperature

Lights,
    Space 102 Lights 1,      !- Name
    Thermal Zone: Space 102 - Plus,  !- Zone or ZoneList or Space or SpaceList Name
    ltg_sch_office,          !- Schedule Name
    Watts/Area,              !- Design Level Calculation Method
    ,                        !- Lighting Level {W}
    6.181254,                !- Watts per Zone Floor Area {W/m2}
    ,                        !- Watts per Person {W/person}
    0,                       !- Return Air Fraction
    0.7,                     !- Fraction Radiant
    0.2,                     !- Fraction Visible
    1,                       !- Fraction Replaceable
    LightsWired,             !- End-Use Subcategory
    No;                      !- Return Air Fraction Calculated from Plenum Temperature

Lights,
    Space 105 LAB A Lights 1,      !- Name
    Thermal Zone: Space 105 LAB A, !- Zone or ZoneList or Space or SpaceList Name
    ltg_sch_office,          !- Schedule Name
    Watts/Area,              !- Design Level Calculation Method
    ,                        !- Lighting Level {W}
    6.181254,                !- Watts per Zone Floor Area {W/m2}
    ,                        !- Watts per Person {W/person}
    0,                       !- Return Air Fraction
    0.7,                     !- Fraction Radiant
    0.2,                     !- Fraction Visible
    1,                       !- Fraction Replaceable
    LightsWired,             !- End-Use Subcategory
    No;                      !- Return Air Fraction Calculated from Plenum Temperature


!-   ===========  ALL OBJECTS IN CLASS: ELECTRICEQUIPMENT ===========

ElectricEquipment,
    Space 103 LAB B ElecEq 1,      !- Name
    Thermal Zone: Space 103 LAB B, !- Zone or ZoneList or Space or SpaceList Name
    EQUIP-1,                 !- Schedule Name
    Watts/Area,              !- Design Level Calculation Method
    ,                        !- Design Level {W}
    6.78,                    !- Watts per Zone Floor Area {W/m2}
    ,                        !- Watts per Person {W/person}
    ,                        !- Fraction Latent
    ,                        !- Fraction Radiant
    ,                        !- Fraction Lost
    MiscPlug;                !- End-Use Subcategory

ElectricEquipment,
    Space 102 ElecEq 1,      !- Name
    Thermal Zone: Space 102 - Plus,  !- Zone or ZoneList or Space or SpaceList Name
    EQUIP-1,                 !- Schedule Name
    Watts/Area,              !- Design Level Calculation Method
    ,                        !- Design Level {W}
    6.78,                    !- Watts per Zone Floor Area {W/m2}
    ,                        !- Watts per Person {W/person}
    ,                        !- Fraction Latent
    ,                        !- Fraction Radiant
    ,                        !- Fraction Lost
    MiscPlug;                !- End-Use Subcategory

ElectricEquipment,
    Space 105 LAB A ElecEq 1,      !- Name
    Thermal Zone: Space 105 LAB A, !- Zone or ZoneList or Space or SpaceList Name
    EQUIP-1,                 !- Schedule Name
    Watts/Area,              !- Design Level Calculation Method
    ,                        !- Design Level {W}
    6.78,                    !- Watts per Zone Floor Area {W/m2}
    ,                        !- Watts per Person {W/person}
    ,                        !- Fraction Latent
    ,                        !- Fraction Radiant
    ,                        !- Fraction Lost
    MiscPlug;                !- End-Use Subcategory


!-   ===========  ALL OBJECTS IN CLASS: ZONEINFILTRATION:DESIGNFLOWRATE ===========

ZoneInfiltration:DesignFlowRate,
    Space 103 LAB B Infil 1,       !- Name
    Thermal Zone: Space 103 LAB B, !- Zone or ZoneList or Space or SpaceList Name
    INFIL-SCH,               !- Schedule Name
    Flow/ExteriorWallArea,   !- Design Flow Rate Calculation Method
    0,                       !- Design Flow Rate {m3/s}
    ,                        !- Flow Rate per Floor Area {m3/s-m2}
    0.000199350288,          !- Flow Rate per Exterior Surface Area {m3/s-m2}
    ,                        !- Air Changes per Hour {1/hr}
    0,                       !- Constant Term Coefficient
    0,                       !- Temperature Term Coefficient
    0.224,                   !- Velocity Term Coefficient
    0;                       !- Velocity Squared Term Coefficient

ZoneInfiltration:DesignFlowRate,
    Space 102 Infil 1,       !- Name
    Thermal Zone: Space 102 - Plus,  !- Zone or ZoneList or Space or SpaceList Name
    INFIL-SCH,               !- Schedule Name
    Flow/ExteriorWallArea,   !- Design Flow Rate Calculation Method
    0,                       !- Design Flow Rate {m3/s}
    ,                        !- Flow Rate per Floor Area {m3/s-m2}
    0.000199350288,          !- Flow Rate per Exterior Surface Area {m3/s-m2}
    ,                        !- Air Changes per Hour {1/hr}
    0,                       !- Constant Term Coefficient
    0,                       !- Temperature Term Coefficient
    0.224,                   !- Velocity Term Coefficient
    0;                       !- Velocity Squared Term Coefficient

ZoneInfiltration:DesignFlowRate,
    Space 105 LAB A Infil 1,       !- Name
    Thermal Zone: Space 105 LAB A, !- Zone or ZoneList or Space or SpaceList Name
    INFIL-SCH,               !- Schedule Name
    Flow/ExteriorWallArea,   !- Design Flow Rate Calculation Method
    0,                       !- Design Flow Rate {m3/s}
    ,                        !- Flow Rate per Floor Area {m3/s-m2}
    0.000199350288,          !- Flow Rate per Exterior Surface Area {m3/s-m2}
    ,                        !- Air Changes per Hour {1/hr}
    0,                       !- Constant Term Coefficient
    0,                       !- Temperature Term Coefficient
    0.224,                   !- Velocity Term Coefficient
    0;                       !- Velocity Squared Term Coefficient

ZoneInfiltration:DesignFlowRate,
    MEP Infil 1,             !- Name
    MEP,                     !- Zone or ZoneList or Space or SpaceList Name
    INFIL-SCH,               !- Schedule Name
    Flow/ExteriorWallArea,   !- Design Flow Rate Calculation Method
    0,                       !- Design Flow Rate {m3/s}
    ,                        !- Flow Rate per Floor Area {m3/s-m2}
    0.000199350288,          !- Flow Rate per Exterior Surface Area {m3/s-m2}
    ,                        !- Air Changes per Hour {1/hr}
    0,                       !- Constant Term Coefficient
    0,                       !- Temperature Term Coefficient
    0.224,                   !- Velocity Term Coefficient
    0;                       !- Velocity Squared Term Coefficient


!-   ===========  ALL OBJECTS IN CLASS: EXTERIOR:LIGHTS ===========

Exterior:Lights,
    Exterior_Lights_a,       !- Name
    Exterior_lighting_schedule_a,  !- Schedule Name
    88.49,                   !- Design Level {W}
    ,                        !- Control Option
    General;                 !- End-Use Subcategory


!-   ===========  ALL OBJECTS IN CLASS: DESIGNSPECIFICATION:OUTDOORAIR ===========

DesignSpecification:OutdoorAir,
    SZ DSOA Thermal Zone: Space 103 LAB B,  !- Name
    Sum,                     !- Outdoor Air Method
    0.0025,                  !- Outdoor Air Flow per Person {m3/s-person}
    0.0003,                  !- Outdoor Air Flow per Zone Floor Area {m3/s-m2}
    0,                       !- Outdoor Air Flow per Zone {m3/s}
    0,                       !- Outdoor Air Flow Air Changes per Hour {1/hr}
    Min OA Sched;            !- Outdoor Air Schedule Name

DesignSpecification:OutdoorAir,
    SZ DSOA Thermal Zone: Space 102 - Plus,  !- Name
    Sum,                     !- Outdoor Air Method
    0.0025,                  !- Outdoor Air Flow per Person {m3/s-person}
    0.0003,                  !- Outdoor Air Flow per Zone Floor Area {m3/s-m2}
    0,                       !- Outdoor Air Flow per Zone {m3/s}
    0,                       !- Outdoor Air Flow Air Changes per Hour {1/hr}
    Min OA Sched;            !- Outdoor Air Schedule Name

DesignSpecification:OutdoorAir,
    SZ DSOA Thermal Zone: Space 105 LAB A,  !- Name
    Sum,                     !- Outdoor Air Method
    0.0025,                  !- Outdoor Air Flow per Person {m3/s-person}
    0.0003,                  !- Outdoor Air Flow per Zone Floor Area {m3/s-m2}
    0,                       !- Outdoor Air Flow per Zone {m3/s}
    0,                       !- Outdoor Air Flow Air Changes per Hour {1/hr}
    Min OA Sched;            !- Outdoor Air Schedule Name


!-   ===========  ALL OBJECTS IN CLASS: DESIGNSPECIFICATION:ZONEAIRDISTRIBUTION ===========

DesignSpecification:ZoneAirDistribution,
    SZ DSZAD Thermal Zone: Space 103 LAB B,  !- Name
    1,                       !- Zone Air Distribution Effectiveness in Cooling Mode {dimensionless}
    1;                       !- Zone Air Distribution Effectiveness in Heating Mode {dimensionless}

DesignSpecification:ZoneAirDistribution,
    SZ DSZAD Thermal Zone: Space 102 - Plus,  !- Name
    1,                       !- Zone Air Distribution Effectiveness in Cooling Mode {dimensionless}
    1;                       !- Zone Air Distribution Effectiveness in Heating Mode {dimensionless}

DesignSpecification:ZoneAirDistribution,
    SZ DSZAD Thermal Zone: Space 105 LAB A,  !- Name
    1,                       !- Zone Air Distribution Effectiveness in Cooling Mode {dimensionless}
    1;                       !- Zone Air Distribution Effectiveness in Heating Mode {dimensionless}


!-   ===========  ALL OBJECTS IN CLASS: SIZING:PARAMETERS ===========

Sizing:Parameters,
    1.2,                     !- Heating Sizing Factor
    2;                       !- Cooling Sizing Factor


!-   ===========  ALL OBJECTS IN CLASS: SIZING:ZONE ===========

Sizing:Zone,
    Thermal Zone: Space 103 LAB B, !- Zone or ZoneList Name
    SupplyAirTemperature,    !- Zone Cooling Design Supply Air Temperature Input Method
    12.8,                    !- Zone Cooling Design Supply Air Temperature {C}
    11,                      !- Zone Cooling Design Supply Air Temperature Difference {deltaC}
    SupplyAirTemperature,    !- Zone Heating Design Supply Air Temperature Input Method
    40,                      !- Zone Heating Design Supply Air Temperature {C}
    ,                        !- Zone Heating Design Supply Air Temperature Difference {deltaC}
    0.0085,                  !- Zone Cooling Design Supply Air Humidity Ratio {kgWater/kgDryAir}
    0.008,                   !- Zone Heating Design Supply Air Humidity Ratio {kgWater/kgDryAir}
    SZ DSOA Thermal Zone: Space 103 LAB B,  !- Design Specification Outdoor Air Object Name
    1.2,                     !- Zone Heating Sizing Factor
    1.2,                     !- Zone Cooling Sizing Factor
    ,                        !- Cooling Design Air Flow Method
    ,                        !- Cooling Design Air Flow Rate {m3/s}
    ,                        !- Cooling Minimum Air Flow per Zone Floor Area {m3/s-m2}
    ,                        !- Cooling Minimum Air Flow {m3/s}
    ,                        !- Cooling Minimum Air Flow Fraction
    ,                        !- Heating Design Air Flow Method
    ,                        !- Heating Design Air Flow Rate {m3/s}
    ,                        !- Heating Maximum Air Flow per Zone Floor Area {m3/s-m2}
    ,                        !- Heating Maximum Air Flow {m3/s}
    ,                        !- Heating Maximum Air Flow Fraction
    SZ DSZAD Thermal Zone: Space 103 LAB B,  !- Design Specification Zone Air Distribution Object Name
    No,                      !- Account for Dedicated Outdoor Air System
    ,                        !- Dedicated Outdoor Air System Control Strategy
    ,                        !- Dedicated Outdoor Air Low Setpoint Temperature for Design {C}
    ,                        !- Dedicated Outdoor Air High Setpoint Temperature for Design {C}
    Sensible Load Only No Latent Load,  !- Zone Load Sizing Method
    HumidityRatioDifference, !- Zone Latent Cooling Design Supply Air Humidity Ratio Input Method
    ,                        !- Zone Dehumidification Design Supply Air Humidity Ratio {kgWater/kgDryAir}
    0.005,                   !- Zone Cooling Design Supply Air Humidity Ratio Difference {kgWater/kgDryAir}
    HumidityRatioDifference, !- Zone Latent Heating Design Supply Air Humidity Ratio Input Method
    ,                        !- Zone Humidification Design Supply Air Humidity Ratio {kgWater/kgDryAir}
    0.005;                   !- Zone Humidification Design Supply Air Humidity Ratio Difference {kgWater/kgDryAir}

Sizing:Zone,
    Thermal Zone: Space 102 - Plus,  !- Zone or ZoneList Name
    SupplyAirTemperature,    !- Zone Cooling Design Supply Air Temperature Input Method
    12.8,                    !- Zone Cooling Design Supply Air Temperature {C}
    ,                        !- Zone Cooling Design Supply Air Temperature Difference {deltaC}
    SupplyAirTemperature,    !- Zone Heating Design Supply Air Temperature Input Method
    40,                      !- Zone Heating Design Supply Air Temperature {C}
    ,                        !- Zone Heating Design Supply Air Temperature Difference {deltaC}
    0.0085,                  !- Zone Cooling Design Supply Air Humidity Ratio {kgWater/kgDryAir}
    0.008,                   !- Zone Heating Design Supply Air Humidity Ratio {kgWater/kgDryAir}
    SZ DSOA Thermal Zone: Space 102 - Plus,  !- Design Specification Outdoor Air Object Name
    1.2,                     !- Zone Heating Sizing Factor
    1.2,                     !- Zone Cooling Sizing Factor
    ,                        !- Cooling Design Air Flow Method
    ,                        !- Cooling Design Air Flow Rate {m3/s}
    ,                        !- Cooling Minimum Air Flow per Zone Floor Area {m3/s-m2}
    ,                        !- Cooling Minimum Air Flow {m3/s}
    ,                        !- Cooling Minimum Air Flow Fraction
    ,                        !- Heating Design Air Flow Method
    ,                        !- Heating Design Air Flow Rate {m3/s}
    ,                        !- Heating Maximum Air Flow per Zone Floor Area {m3/s-m2}
    ,                        !- Heating Maximum Air Flow {m3/s}
    ,                        !- Heating Maximum Air Flow Fraction
    SZ DSZAD Thermal Zone: Space 102 - Plus,  !- Design Specification Zone Air Distribution Object Name
    No,                      !- Account for Dedicated Outdoor Air System
    ,                        !- Dedicated Outdoor Air System Control Strategy
    ,                        !- Dedicated Outdoor Air Low Setpoint Temperature for Design {C}
    ,                        !- Dedicated Outdoor Air High Setpoint Temperature for Design {C}
    Sensible Load Only No Latent Load,  !- Zone Load Sizing Method
    HumidityRatioDifference, !- Zone Latent Cooling Design Supply Air Humidity Ratio Input Method
    ,                        !- Zone Dehumidification Design Supply Air Humidity Ratio {kgWater/kgDryAir}
    0.005,                   !- Zone Cooling Design Supply Air Humidity Ratio Difference {kgWater/kgDryAir}
    HumidityRatioDifference, !- Zone Latent Heating Design Supply Air Humidity Ratio Input Method
    ,                        !- Zone Humidification Design Supply Air Humidity Ratio {kgWater/kgDryAir}
    0.005;                   !- Zone Humidification Design Supply Air Humidity Ratio Difference {kgWater/kgDryAir}

Sizing:Zone,
    Thermal Zone: Space 105 LAB A, !- Zone or ZoneList Name
    SupplyAirTemperature,    !- Zone Cooling Design Supply Air Temperature Input Method
    12.8,                    !- Zone Cooling Design Supply Air Temperature {C}
    ,                        !- Zone Cooling Design Supply Air Temperature Difference {deltaC}
    SupplyAirTemperature,    !- Zone Heating Design Supply Air Temperature Input Method
    40,                      !- Zone Heating Design Supply Air Temperature {C}
    ,                        !- Zone Heating Design Supply Air Temperature Difference {deltaC}
    0.0085,                  !- Zone Cooling Design Supply Air Humidity Ratio {kgWater/kgDryAir}
    0.008,                   !- Zone Heating Design Supply Air Humidity Ratio {kgWater/kgDryAir}
    SZ DSOA Thermal Zone: Space 105 LAB A,  !- Design Specification Outdoor Air Object Name
    1.2,                     !- Zone Heating Sizing Factor
    1.2,                     !- Zone Cooling Sizing Factor
    ,                        !- Cooling Design Air Flow Method
    ,                        !- Cooling Design Air Flow Rate {m3/s}
    ,                        !- Cooling Minimum Air Flow per Zone Floor Area {m3/s-m2}
    ,                        !- Cooling Minimum Air Flow {m3/s}
    ,                        !- Cooling Minimum Air Flow Fraction
    ,                        !- Heating Design Air Flow Method
    ,                        !- Heating Design Air Flow Rate {m3/s}
    ,                        !- Heating Maximum Air Flow per Zone Floor Area {m3/s-m2}
    ,                        !- Heating Maximum Air Flow {m3/s}
    ,                        !- Heating Maximum Air Flow Fraction
    SZ DSZAD Thermal Zone: Space 105 LAB A,  !- Design Specification Zone Air Distribution Object Name
    No,                      !- Account for Dedicated Outdoor Air System
    ,                        !- Dedicated Outdoor Air System Control Strategy
    ,                        !- Dedicated Outdoor Air Low Setpoint Temperature for Design {C}
    ,                        !- Dedicated Outdoor Air High Setpoint Temperature for Design {C}
    Sensible Load Only No Latent Load,  !- Zone Load Sizing Method
    HumidityRatioDifference, !- Zone Latent Cooling Design Supply Air Humidity Ratio Input Method
    ,                        !- Zone Dehumidification Design Supply Air Humidity Ratio {kgWater/kgDryAir}
    0.005,                   !- Zone Cooling Design Supply Air Humidity Ratio Difference {kgWater/kgDryAir}
    HumidityRatioDifference, !- Zone Latent Heating Design Supply Air Humidity Ratio Input Method
    ,                        !- Zone Humidification Design Supply Air Humidity Ratio {kgWater/kgDryAir}
    0.005;                   !- Zone Humidification Design Supply Air Humidity Ratio Difference {kgWater/kgDryAir}


!-   ===========  ALL OBJECTS IN CLASS: SIZING:SYSTEM ===========

Sizing:System,
    DXVAV Sys 1,             !- AirLoop Name
    Sensible,                !- Type of Load to Size On
    autosize,                !- Design Outdoor Air Flow Rate {m3/s}
    1,                       !- Central Heating Maximum System Air Flow Ratio
    7,                       !- Preheat Design Temperature {C}
    0.008,                   !- Preheat Design Humidity Ratio {kgWater/kgDryAir}
    12.8,                    !- Precool Design Temperature {C}
    0.008,                   !- Precool Design Humidity Ratio {kgWater/kgDryAir}
    12.8,                    !- Central Cooling Design Supply Air Temperature {C}
    17.7,                    !- Central Heating Design Supply Air Temperature {C}
    NonCoincident,           !- Type of Zone Sum to Use
    No,                      !- 100% Outdoor Air in Cooling
    No,                      !- 100% Outdoor Air in Heating
    0.0085,                  !- Central Cooling Design Supply Air Humidity Ratio {kgWater/kgDryAir}
    0.008,                   !- Central Heating Design Supply Air Humidity Ratio {kgWater/kgDryAir}
    ,                        !- Cooling Supply Air Flow Rate Method
    ,                        !- Cooling Supply Air Flow Rate {m3/s}
    ,                        !- Cooling Supply Air Flow Rate Per Floor Area {m3/s-m2}
    ,                        !- Cooling Fraction of Autosized Cooling Supply Air Flow Rate
    ,                        !- Cooling Supply Air Flow Rate Per Unit Cooling Capacity {m3/s-W}
    ,                        !- Heating Supply Air Flow Rate Method
    ,                        !- Heating Supply Air Flow Rate {m3/s}
    ,                        !- Heating Supply Air Flow Rate Per Floor Area {m3/s-m2}
    ,                        !- Heating Fraction of Autosized Heating Supply Air Flow Rate
    ,                        !- Heating Fraction of Autosized Cooling Supply Air Flow Rate
    ,                        !- Heating Supply Air Flow Rate Per Unit Heating Capacity {m3/s-W}
    Standard62.1VentilationRateProcedure,  !- System Outdoor Air Method
    1,                       !- Zone Maximum Outdoor Air Fraction {dimensionless}
    CoolingDesignCapacity,   !- Cooling Design Capacity Method
    autosize,                !- Cooling Design Capacity {W}
    ,                        !- Cooling Design Capacity Per Floor Area {W/m2}
    ,                        !- Fraction of Autosized Cooling Design Capacity
    HeatingDesignCapacity,   !- Heating Design Capacity Method
    autosize,                !- Heating Design Capacity {W}
    ,                        !- Heating Design Capacity Per Floor Area {W/m2}
    ,                        !- Fraction of Autosized Heating Design Capacity
    OnOff;                   !- Central Cooling Capacity Control Method


!-   ===========  ALL OBJECTS IN CLASS: ZONECONTROL:THERMOSTAT ===========

ZoneControl:Thermostat,
    Thermal Zone: Space 103 LAB B Thermostat,  !- Name
    Thermal Zone: Space 103 LAB B, !- Zone or ZoneList Name
    HVACTemplate-Always 4,   !- Control Type Schedule Name
    ThermostatSetpoint:DualSetpoint,  !- Control 1 Object Type
    Dual SP Control;         !- Control 1 Name

ZoneControl:Thermostat,
    Thermal Zone: Space 102 - Plus Thermostat,  !- Name
    Thermal Zone: Space 102 - Plus,  !- Zone or ZoneList Name
    HVACTemplate-Always 4,   !- Control Type Schedule Name
    ThermostatSetpoint:DualSetpoint,  !- Control 1 Object Type
    Dual SP Control;         !- Control 1 Name

ZoneControl:Thermostat,
    Thermal Zone: Space 105 LAB A Thermostat,  !- Name
    Thermal Zone: Space 105 LAB A, !- Zone or ZoneList Name
    HVACTemplate-Always 4,   !- Control Type Schedule Name
    ThermostatSetpoint:DualSetpoint,  !- Control 1 Object Type
    Dual SP Control;         !- Control 1 Name


!-   ===========  ALL OBJECTS IN CLASS: THERMOSTATSETPOINT:DUALSETPOINT ===========

ThermostatSetpoint:DualSetpoint,
    Dual SP Control,         !- Name
    HTGSETP_SCH_NO_OPTIMUM,  !- Heating Setpoint Temperature Schedule Name
    CLGSETP_SCH_NO_OPTIMUM;  !- Cooling Setpoint Temperature Schedule Name


!-   ===========  ALL OBJECTS IN CLASS: AIRTERMINAL:SINGLEDUCT:VAV:REHEAT ===========

AirTerminal:SingleDuct:VAV:Reheat,
    Thermal Zone: Space 103 LAB B VAV Reheat,  !- Name
    ,                        !- Availability Schedule Name
    Thermal Zone: Space 103 LAB B Damper Outlet,  !- Damper Air Outlet Node Name
    Thermal Zone: Space 103 LAB B Zone Equip Inlet,  !- Air Inlet Node Name
    autosize,                !- Maximum Air Flow Rate {m3/s}
    Constant,                !- Zone Minimum Air Flow Input Method
    autosize,                !- Constant Minimum Air Flow Fraction
    ,                        !- Fixed Minimum Air Flow Rate {m3/s}
    ,                        !- Minimum Air Flow Fraction Schedule Name
    Coil:Heating:Electric,   !- Reheat Coil Object Type
    Thermal Zone: Space 103 LAB B Reheat Coil,  !- Reheat Coil Name
    ,                        !- Maximum Hot Water or Steam Flow Rate {m3/s}
    ,                        !- Minimum Hot Water or Steam Flow Rate {m3/s}
    Thermal Zone: Space 103 LAB B Supply Inlet,  !- Air Outlet Node Name
    0.001,                   !- Convergence Tolerance
    Reverse,                 !- Damper Heating Action
    autocalculate,           !- Maximum Flow per Zone Floor Area During Reheat {m3/s-m2}
    ,                        !- Maximum Flow Fraction During Reheat
    ,                        !- Maximum Reheat Air Temperature {C}
    SZ DSOA Thermal Zone: Space 103 LAB B;  !- Design Specification Outdoor Air Object Name

AirTerminal:SingleDuct:VAV:Reheat,
    Thermal Zone: Space 102 - Plus VAV Reheat,  !- Name
    ,                        !- Availability Schedule Name
    Thermal Zone: Space 102 - Plus Damper Outlet,  !- Damper Air Outlet Node Name
    Thermal Zone: Space 102 - Plus Zone Equip Inlet,  !- Air Inlet Node Name
    autosize,                !- Maximum Air Flow Rate {m3/s}
    Constant,                !- Zone Minimum Air Flow Input Method
    autosize,                !- Constant Minimum Air Flow Fraction
    ,                        !- Fixed Minimum Air Flow Rate {m3/s}
    ,                        !- Minimum Air Flow Fraction Schedule Name
    Coil:Heating:Electric,   !- Reheat Coil Object Type
    Thermal Zone: Space 102 - Plus Reheat Coil,  !- Reheat Coil Name
    ,                        !- Maximum Hot Water or Steam Flow Rate {m3/s}
    ,                        !- Minimum Hot Water or Steam Flow Rate {m3/s}
    Thermal Zone: Space 102 - Plus Supply Inlet,  !- Air Outlet Node Name
    0.001,                   !- Convergence Tolerance
    Reverse,                 !- Damper Heating Action
    autocalculate,           !- Maximum Flow per Zone Floor Area During Reheat {m3/s-m2}
    ,                        !- Maximum Flow Fraction During Reheat
    ,                        !- Maximum Reheat Air Temperature {C}
    SZ DSOA Thermal Zone: Space 102 - Plus;  !- Design Specification Outdoor Air Object Name

AirTerminal:SingleDuct:VAV:Reheat,
    Thermal Zone: Space 105 LAB A VAV Reheat,  !- Name
    ,                        !- Availability Schedule Name
    Thermal Zone: Space 105 LAB A Damper Outlet,  !- Damper Air Outlet Node Name
    Thermal Zone: Space 105 LAB A Zone Equip Inlet,  !- Air Inlet Node Name
    autosize,                !- Maximum Air Flow Rate {m3/s}
    Constant,                !- Zone Minimum Air Flow Input Method
    autosize,                !- Constant Minimum Air Flow Fraction
    ,                        !- Fixed Minimum Air Flow Rate {m3/s}
    ,                        !- Minimum Air Flow Fraction Schedule Name
    Coil:Heating:Electric,   !- Reheat Coil Object Type
    Thermal Zone: Space 105 LAB A Reheat Coil,  !- Reheat Coil Name
    ,                        !- Maximum Hot Water or Steam Flow Rate {m3/s}
    ,                        !- Minimum Hot Water or Steam Flow Rate {m3/s}
    Thermal Zone: Space 105 LAB A Supply Inlet,  !- Air Outlet Node Name
    0.001,                   !- Convergence Tolerance
    Reverse,                 !- Damper Heating Action
    autocalculate,           !- Maximum Flow per Zone Floor Area During Reheat {m3/s-m2}
    ,                        !- Maximum Flow Fraction During Reheat
    ,                        !- Maximum Reheat Air Temperature {C}
    SZ DSOA Thermal Zone: Space 105 LAB A;  !- Design Specification Outdoor Air Object Name


!-   ===========  ALL OBJECTS IN CLASS: ZONEHVAC:AIRDISTRIBUTIONUNIT ===========

ZoneHVAC:AirDistributionUnit,
    Thermal Zone: Space 103 LAB B ATU,  !- Name
    Thermal Zone: Space 103 LAB B Supply Inlet,  !- Air Distribution Unit Outlet Node Name
    AirTerminal:SingleDuct:VAV:Reheat,  !- Air Terminal Object Type
    Thermal Zone: Space 103 LAB B VAV Reheat;  !- Air Terminal Name

ZoneHVAC:AirDistributionUnit,
    Thermal Zone: Space 102 - Plus ATU,  !- Name
    Thermal Zone: Space 102 - Plus Supply Inlet,  !- Air Distribution Unit Outlet Node Name
    AirTerminal:SingleDuct:VAV:Reheat,  !- Air Terminal Object Type
    Thermal Zone: Space 102 - Plus VAV Reheat;  !- Air Terminal Name

ZoneHVAC:AirDistributionUnit,
    Thermal Zone: Space 105 LAB A ATU,  !- Name
    Thermal Zone: Space 105 LAB A Supply Inlet,  !- Air Distribution Unit Outlet Node Name
    AirTerminal:SingleDuct:VAV:Reheat,  !- Air Terminal Object Type
    Thermal Zone: Space 105 LAB A VAV Reheat;  !- Air Terminal Name


!-   ===========  ALL OBJECTS IN CLASS: ZONEHVAC:EQUIPMENTLIST ===========

ZoneHVAC:EquipmentList,
    Thermal Zone: Space 103 LAB B Equipment,  !- Name
    SequentialLoad,          !- Load Distribution Scheme
    ZoneHVAC:AirDistributionUnit,  !- Zone Equipment 1 Object Type
    Thermal Zone: Space 103 LAB B ATU,  !- Zone Equipment 1 Name
    1,                       !- Zone Equipment 1 Cooling Sequence
    1,                       !- Zone Equipment 1 Heating or No-Load Sequence
    ,                        !- Zone Equipment 1 Sequential Cooling Fraction Schedule Name
    ;                        !- Zone Equipment 1 Sequential Heating Fraction Schedule Name

ZoneHVAC:EquipmentList,
    Thermal Zone: Space 102 - Plus Equipment,  !- Name
    SequentialLoad,          !- Load Distribution Scheme
    ZoneHVAC:AirDistributionUnit,  !- Zone Equipment 1 Object Type
    Thermal Zone: Space 102 - Plus ATU,  !- Zone Equipment 1 Name
    1,                       !- Zone Equipment 1 Cooling Sequence
    1,                       !- Zone Equipment 1 Heating or No-Load Sequence
    ,                        !- Zone Equipment 1 Sequential Cooling Fraction Schedule Name
    ;                        !- Zone Equipment 1 Sequential Heating Fraction Schedule Name

ZoneHVAC:EquipmentList,
    Thermal Zone: Space 105 LAB A Equipment,  !- Name
    SequentialLoad,          !- Load Distribution Scheme
    ZoneHVAC:AirDistributionUnit,  !- Zone Equipment 1 Object Type
    Thermal Zone: Space 105 LAB A ATU,  !- Zone Equipment 1 Name
    1,                       !- Zone Equipment 1 Cooling Sequence
    1,                       !- Zone Equipment 1 Heating or No-Load Sequence
    ,                        !- Zone Equipment 1 Sequential Cooling Fraction Schedule Name
    ;                        !- Zone Equipment 1 Sequential Heating Fraction Schedule Name


!-   ===========  ALL OBJECTS IN CLASS: ZONEHVAC:EQUIPMENTCONNECTIONS ===========

ZoneHVAC:EquipmentConnections,
    Thermal Zone: Space 103 LAB B, !- Zone Name
    Thermal Zone: Space 103 LAB B Equipment,  !- Zone Conditioning Equipment List Name
    Thermal Zone: Space 103 LAB B Supply Inlet,  !- Zone Air Inlet Node or NodeList Name
    ,                        !- Zone Air Exhaust Node or NodeList Name
    Thermal Zone: Space 103 LAB B Zone Air Node,  !- Zone Air Node Name
    Thermal Zone: Space 103 LAB B Return Outlet;  !- Zone Return Air Node or NodeList Name

ZoneHVAC:EquipmentConnections,
    Thermal Zone: Space 102 - Plus,  !- Zone Name
    Thermal Zone: Space 102 - Plus Equipment,  !- Zone Conditioning Equipment List Name
    Thermal Zone: Space 102 - Plus Supply Inlet,  !- Zone Air Inlet Node or NodeList Name
    ,                        !- Zone Air Exhaust Node or NodeList Name
    Thermal Zone: Space 102 - Plus Zone Air Node,  !- Zone Air Node Name
    Thermal Zone: Space 102 - Plus Return Outlet;  !- Zone Return Air Node or NodeList Name

ZoneHVAC:EquipmentConnections,
    Thermal Zone: Space 105 LAB A, !- Zone Name
    Thermal Zone: Space 105 LAB A Equipment,  !- Zone Conditioning Equipment List Name
    Thermal Zone: Space 105 LAB A Supply Inlet,  !- Zone Air Inlet Node or NodeList Name
    ,                        !- Zone Air Exhaust Node or NodeList Name
    Thermal Zone: Space 105 LAB A Zone Air Node,  !- Zone Air Node Name
    Thermal Zone: Space 105 LAB A Return Outlet;  !- Zone Return Air Node or NodeList Name


!-   ===========  ALL OBJECTS IN CLASS: FAN:VARIABLEVOLUME ===========

Fan:VariableVolume,
    DXVAV Sys 1 Return Fan,  !- Name
    AvailSched_1,            !- Availability Schedule Name
    0.3,                     !- Fan Total Efficiency
    1389.42,                 !- Pressure Rise {Pa}
    autosize,                !- Maximum Flow Rate {m3/s}
    Fraction,                !- Fan Power Minimum Flow Rate Input Method
    0.4,                     !- Fan Power Minimum Flow Fraction
    ,                        !- Fan Power Minimum Air Flow Rate {m3/s}
    0.85,                    !- Motor Efficiency
    1,                       !- Motor In Airstream Fraction
    0.0408,                  !- Fan Power Coefficient 1
    0.088,                   !- Fan Power Coefficient 2
    -.0729,                  !- Fan Power Coefficient 3
    0.9437,                  !- Fan Power Coefficient 4
    0,                       !- Fan Power Coefficient 5
    DXVAV Sys 1 Air Loop Inlet,  !- Air Inlet Node Name
    DXVAV Sys 1 Return Fan Outlet;  !- Air Outlet Node Name

Fan:VariableVolume,
    DXVAV Sys 1 Supply Fan,  !- Name
    AvailSched_1,            !- Availability Schedule Name
    0.43,                    !- Fan Total Efficiency
    1389.42,                 !- Pressure Rise {Pa}
    autosize,                !- Maximum Flow Rate {m3/s}
    Fraction,                !- Fan Power Minimum Flow Rate Input Method
    0.4,                     !- Fan Power Minimum Flow Fraction
    ,                        !- Fan Power Minimum Air Flow Rate {m3/s}
    0.815,                   !- Motor Efficiency
    1,                       !- Motor In Airstream Fraction
    0.0408,                  !- Fan Power Coefficient 1
    0.088,                   !- Fan Power Coefficient 2
    -.0729,                  !- Fan Power Coefficient 3
    0.9437,                  !- Fan Power Coefficient 4
    0,                       !- Fan Power Coefficient 5
    DXVAV Sys 1 Heating Coil Outlet,  !- Air Inlet Node Name
    DXVAV Sys 1 Supply Fan Outlet;  !- Air Outlet Node Name


!-   ===========  ALL OBJECTS IN CLASS: COIL:COOLING:DX:TWOSPEED ===========

Coil:Cooling:DX:TwoSpeed,
    DXVAV Sys 1 Cooling Coil,!- Name
    ,                        !- Availability Schedule Name
    autosize,                !- High Speed Gross Rated Total Cooling Capacity {W}
    autosize,                !- High Speed Rated Sensible Heat Ratio
    3.28,                    !- High Speed Gross Rated Cooling COP {W/W}
    autosize,                !- High Speed Rated Air Flow Rate {m3/s}
    ,                        !- Unit Internal Static Air Pressure {Pa}
    DXVAV Sys 1 Mixed Air Outlet,  !- Air Inlet Node Name
    DXVAV Sys 1 Cooling Coil Outlet,  !- Air Outlet Node Name
    DXVAV Sys 1 DX Coil Cap-FT,  !- Total Cooling Capacity Function of Temperature Curve Name
    DXVAV Sys 1 DX Coil Cap-FF,  !- Total Cooling Capacity Function of Flow Fraction Curve Name
    DXVAV Sys 1 DX Coil EIR-FT,  !- Energy Input Ratio Function of Temperature Curve Name
    DXVAV Sys 1 DX Coil EIR-FF,  !- Energy Input Ratio Function of Flow Fraction Curve Name
    DXVAV Sys 1 DX Coil PLF, !- Part Load Fraction Correlation Curve Name
    autosize,                !- Low Speed Gross Rated Total Cooling Capacity {W}
    autosize,                !- Low Speed Gross Rated Sensible Heat Ratio
    3.28,                    !- Low Speed Gross Rated Cooling COP {W/W}
    autosize,                !- Low Speed Rated Air Flow Rate {m3/s}
    DXVAV Sys 1 DX Coil Low Cap-FT,  !- Low Speed Total Cooling Capacity Function of Temperature Curve Name
    DXVAV Sys 1 DX Coil Low EIR-FT,  !- Low Speed Energy Input Ratio Function of Temperature Curve Name
    ,                        !- Condenser Air Inlet Node Name
    AirCooled,               !- Condenser Type
    -25,                     !- Minimum Outdoor Dry-Bulb Temperature for Compressor Operation {C}
    ,                        !- High Speed Evaporative Condenser Effectiveness {dimensionless}
    ,                        !- High Speed Evaporative Condenser Air Flow Rate {m3/s}
    ,                        !- High Speed Evaporative Condenser Pump Rated Power Consumption {W}
    ,                        !- Low Speed Evaporative Condenser Effectiveness {dimensionless}
    ,                        !- Low Speed Evaporative Condenser Air Flow Rate {m3/s}
    ,                        !- Low Speed Evaporative Condenser Pump Rated Power Consumption {W}
    ,                        !- Supply Water Storage Tank Name
    ,                        !- Condensate Collection Water Storage Tank Name
    ,                        !- Basin Heater Capacity {W/K}
    2;                       !- Basin Heater Setpoint Temperature {C}


!-   ===========  ALL OBJECTS IN CLASS: COIL:HEATING:ELECTRIC ===========

Coil:Heating:Electric,
    Thermal Zone: Space 103 LAB B Reheat Coil,  !- Name
    AvailSched_1,            !- Availability Schedule Name
    1,                       !- Efficiency
    autosize,                !- Nominal Capacity {W}
    Thermal Zone: Space 103 LAB B Damper Outlet,  !- Air Inlet Node Name
    Thermal Zone: Space 103 LAB B Supply Inlet;  !- Air Outlet Node Name

Coil:Heating:Electric,
    Thermal Zone: Space 102 - Plus Reheat Coil,  !- Name
    AvailSched_1,            !- Availability Schedule Name
    1,                       !- Efficiency
    autosize,                !- Nominal Capacity {W}
    Thermal Zone: Space 102 - Plus Damper Outlet,  !- Air Inlet Node Name
    Thermal Zone: Space 102 - Plus Supply Inlet;  !- Air Outlet Node Name

Coil:Heating:Electric,
    Thermal Zone: Space 105 LAB A Reheat Coil,  !- Name
    AvailSched_1,            !- Availability Schedule Name
    1,                       !- Efficiency
    autosize,                !- Nominal Capacity {W}
    Thermal Zone: Space 105 LAB A Damper Outlet,  !- Air Inlet Node Name
    Thermal Zone: Space 105 LAB A Supply Inlet;  !- Air Outlet Node Name

Coil:Heating:Electric,
    DXVAV Sys 1 Heating Coil,!- Name
    AvailSched_1,            !- Availability Schedule Name
    1,                       !- Efficiency
    15000,                   !- Nominal Capacity {W}
    DXVAV Sys 1 Cooling Coil Outlet,  !- Air Inlet Node Name
    DXVAV Sys 1 Heating Coil Outlet,  !- Air Outlet Node Name
    DXVAV Sys 1 Heating Coil Outlet;  !- Temperature Setpoint Node Name


!-   ===========  ALL OBJECTS IN CLASS: COILSYSTEM:COOLING:DX ===========

CoilSystem:Cooling:DX,
    DXVAV Sys 1 System,      !- Name
    ,                        !- Availability Schedule Name
    DXVAV Sys 1 Mixed Air Outlet,  !- DX Cooling Coil System Inlet Node Name
    DXVAV Sys 1 Cooling Coil Outlet,  !- DX Cooling Coil System Outlet Node Name
    DXVAV Sys 1 Cooling Coil Outlet,  !- DX Cooling Coil System Sensor Node Name
    Coil:Cooling:DX:TwoSpeed,!- Cooling Coil Object Type
    DXVAV Sys 1 Cooling Coil,!- Cooling Coil Name
    None,                    !- Dehumidification Control Type
    Yes,                     !- Run on Sensible Load
    No;                      !- Run on Latent Load


!-   ===========  ALL OBJECTS IN CLASS: CONTROLLER:OUTDOORAIR ===========

Controller:OutdoorAir,
    DXVAV Sys 1 OA Controller,  !- Name
    DXVAV Sys 1 Relief Air Outlet,  !- Relief Air Outlet Node Name
    DXVAV Sys 1 Return Fan Outlet,  !- Return Air Node Name
    DXVAV Sys 1 Mixed Air Outlet,  !- Mixed Air Node Name
    DXVAV Sys 1 Outside Air Inlet,  !- Actuator Node Name
    0.0,                     !- Minimum Outdoor Air Flow Rate {m3/s}
    autosize,                !- Maximum Outdoor Air Flow Rate {m3/s}
    FixedDryBulb,            !- Economizer Control Type
    ModulateFlow,            !- Economizer Control Action Type
    12.7778,                 !- Economizer Maximum Limit Dry-Bulb Temperature {C}
    ,                        !- Economizer Maximum Limit Enthalpy {J/kg}
    ,                        !- Economizer Maximum Limit Dewpoint Temperature {C}
    ,                        !- Electronic Enthalpy Limit Curve Name
    4,                       !- Economizer Minimum Limit Dry-Bulb Temperature {C}
    NoLockout,               !- Lockout Type
    FixedMinimum,            !- Minimum Limit Type
    Min OA Sched,            !- Minimum Outdoor Air Schedule Name
    ,                        !- Minimum Fraction of Outdoor Air Schedule Name
    ,                        !- Maximum Fraction of Outdoor Air Schedule Name
    HIBO Multizone Ventilation Controller;  !- Mechanical Ventilation Controller Name


!-   ===========  ALL OBJECTS IN CLASS: CONTROLLER:MECHANICALVENTILATION ===========

Controller:MechanicalVentilation,
    HIBO Multizone Ventilation Controller,  !- Name
    Min OA Sched,            !- Availability Schedule Name
    No,                      !- Demand Controlled Ventilation
    Standard62.1VentilationRateProcedure,  !- System Outdoor Air Method
    1.0,                     !- Zone Maximum Outdoor Air Fraction {dimensionless}
    Thermal Zone: Space 103 LAB B, !- Zone or ZoneList 1 Name
    SZ DSOA Thermal Zone: Space 103 LAB B,  !- Design Specification Outdoor Air Object Name 1
    SZ DSZAD Thermal Zone: Space 103 LAB B,  !- Design Specification Zone Air Distribution Object Name 1
    Thermal Zone: Space 102 - Plus,  !- Zone or ZoneList 2 Name
    SZ DSOA Thermal Zone: Space 102 - Plus,  !- Design Specification Outdoor Air Object Name 2
    SZ DSZAD Thermal Zone: Space 102 - Plus,  !- Design Specification Zone Air Distribution Object Name 2
    Thermal Zone: Space 105 LAB A, !- Zone or ZoneList 3 Name
    SZ DSOA Thermal Zone: Space 105 LAB A,  !- Design Specification Outdoor Air Object Name 3
    SZ DSZAD Thermal Zone: Space 105 LAB A;  !- Design Specification Zone Air Distribution Object Name 3


!-   ===========  ALL OBJECTS IN CLASS: AIRLOOPHVAC:CONTROLLERLIST ===========

AirLoopHVAC:ControllerList,
    DXVAV Sys 1 OA System Controllers,  !- Name
    Controller:OutdoorAir,   !- Controller 1 Object Type
    DXVAV Sys 1 OA Controller;  !- Controller 1 Name


!-   ===========  ALL OBJECTS IN CLASS: AIRLOOPHVAC ===========

AirLoopHVAC,
    DXVAV Sys 1,             !- Name
    ,                        !- Controller List Name
    DXVAV Sys 1 Availability Managers,  !- Availability Manager List Name
    autosize,                !- Design Supply Air Flow Rate {m3/s}
    DXVAV Sys 1 Branches,    !- Branch List Name
    ,                        !- Connector List Name
    DXVAV Sys 1 Air Loop Inlet,  !- Supply Side Inlet Node Name
    DXVAV Sys 1 Return Air Outlet,  !- Demand Side Outlet Node Name
    DXVAV Sys 1 Supply Path Inlet,  !- Demand Side Inlet Node Names
    DXVAV Sys 1 Supply Fan Outlet;  !- Supply Side Outlet Node Names


!-   ===========  ALL OBJECTS IN CLASS: AIRLOOPHVAC:OUTDOORAIRSYSTEM:EQUIPMENTLIST ===========

AirLoopHVAC:OutdoorAirSystem:EquipmentList,
    DXVAV Sys 1 OA System Equipment,  !- Name
    OutdoorAir:Mixer,        !- Component 1 Object Type
    DXVAV Sys 1 OA Mixing Box;  !- Component 1 Name


!-   ===========  ALL OBJECTS IN CLASS: AIRLOOPHVAC:OUTDOORAIRSYSTEM ===========

AirLoopHVAC:OutdoorAirSystem,
    DXVAV Sys 1 OA System,   !- Name
    DXVAV Sys 1 OA System Controllers,  !- Controller List Name
    DXVAV Sys 1 OA System Equipment;  !- Outdoor Air Equipment List Name


!-   ===========  ALL OBJECTS IN CLASS: OUTDOORAIR:MIXER ===========

OutdoorAir:Mixer,
    DXVAV Sys 1 OA Mixing Box,  !- Name
    DXVAV Sys 1 Mixed Air Outlet,  !- Mixed Air Node Name
    DXVAV Sys 1 Outside Air Inlet,  !- Outdoor Air Stream Node Name
    DXVAV Sys 1 Relief Air Outlet,  !- Relief Air Stream Node Name
    DXVAV Sys 1 Return Fan Outlet;  !- Return Air Stream Node Name


!-   ===========  ALL OBJECTS IN CLASS: AIRLOOPHVAC:ZONESPLITTER ===========

AirLoopHVAC:ZoneSplitter,
    DXVAV Sys 1 Zone Splitter,  !- Name
    DXVAV Sys 1 Supply Path Inlet,  !- Inlet Node Name
    Thermal Zone: Space 103 LAB B Zone Equip Inlet,  !- Outlet 1 Node Name
    Thermal Zone: Space 102 - Plus Zone Equip Inlet,  !- Outlet 2 Node Name
    Thermal Zone: Space 105 LAB A Zone Equip Inlet;  !- Outlet 3 Node Name


!-   ===========  ALL OBJECTS IN CLASS: AIRLOOPHVAC:SUPPLYPATH ===========

AirLoopHVAC:SupplyPath,
    DXVAV Sys 1 Supply Path, !- Name
    DXVAV Sys 1 Supply Path Inlet,  !- Supply Air Path Inlet Node Name
    AirLoopHVAC:ZoneSplitter,!- Component 1 Object Type
    DXVAV Sys 1 Zone Splitter;  !- Component 1 Name


!-   ===========  ALL OBJECTS IN CLASS: AIRLOOPHVAC:RETURNPLENUM ===========

AirLoopHVAC:ReturnPlenum,
    DXVAV Sys 1 Return Plenum,  !- Name
    Thermal Zone: Plenum,    !- Zone Name
    Thermal Zone: Plenum Zone Air Node,  !- Zone Node Name
    DXVAV Sys 1 Return Air Outlet,  !- Outlet Node Name
    ,                        !- Induced Air Outlet Node or NodeList Name
    Thermal Zone: Space 103 LAB B Return Outlet,  !- Inlet 1 Node Name
    Thermal Zone: Space 102 - Plus Return Outlet,  !- Inlet 2 Node Name
    Thermal Zone: Space 105 LAB A Return Outlet;  !- Inlet 3 Node Name


!-   ===========  ALL OBJECTS IN CLASS: AIRLOOPHVAC:RETURNPATH ===========

AirLoopHVAC:ReturnPath,
    DXVAV Sys 1 Return Path, !- Name
    DXVAV Sys 1 Return Air Outlet,  !- Return Air Path Outlet Node Name
    AirLoopHVAC:ReturnPlenum,!- Component 1 Object Type
    DXVAV Sys 1 Return Plenum;  !- Component 1 Name


!-   ===========  ALL OBJECTS IN CLASS: BRANCH ===========

Branch,
    DXVAV Sys 1 Main Branch, !- Name
    ,                        !- Pressure Drop Curve Name
    Fan:VariableVolume,      !- Component 1 Object Type
    DXVAV Sys 1 Return Fan,  !- Component 1 Name
    DXVAV Sys 1 Air Loop Inlet,  !- Component 1 Inlet Node Name
    DXVAV Sys 1 Return Fan Outlet,  !- Component 1 Outlet Node Name
    AirLoopHVAC:OutdoorAirSystem,  !- Component 2 Object Type
    DXVAV Sys 1 OA System,   !- Component 2 Name
    DXVAV Sys 1 Return Fan Outlet,  !- Component 2 Inlet Node Name
    DXVAV Sys 1 Mixed Air Outlet,  !- Component 2 Outlet Node Name
    CoilSystem:Cooling:DX,   !- Component 3 Object Type
    DXVAV Sys 1 System,      !- Component 3 Name
    DXVAV Sys 1 Mixed Air Outlet,  !- Component 3 Inlet Node Name
    DXVAV Sys 1 Cooling Coil Outlet,  !- Component 3 Outlet Node Name
    Coil:Heating:Electric,   !- Component 4 Object Type
    DXVAV Sys 1 Heating Coil,!- Component 4 Name
    DXVAV Sys 1 Cooling Coil Outlet,  !- Component 4 Inlet Node Name
    DXVAV Sys 1 Heating Coil Outlet,  !- Component 4 Outlet Node Name
    Fan:VariableVolume,      !- Component 5 Object Type
    DXVAV Sys 1 Supply Fan,  !- Component 5 Name
    DXVAV Sys 1 Heating Coil Outlet,  !- Component 5 Inlet Node Name
    DXVAV Sys 1 Supply Fan Outlet;  !- Component 5 Outlet Node Name


!-   ===========  ALL OBJECTS IN CLASS: BRANCHLIST ===========

BranchList,
    DXVAV Sys 1 Branches,    !- Name
    DXVAV Sys 1 Main Branch; !- Branch 1 Name


!-   ===========  ALL OBJECTS IN CLASS: NODELIST ===========

NodeList,
    DXVAV Sys 1 Mixed Air Nodes,  !- Name
    DXVAV Sys 1 Cooling Coil Outlet,  !- Node 1 Name
    DXVAV Sys 1 Mixed Air Outlet;  !- Node 2 Name

NodeList,
    DXVAV Sys 1 SAT Setpoint Nodes,  !- Name
    DXVAV Sys 1 Supply Path Inlet,  !- Node 1 Name
    DXVAV Sys 1 Supply Fan Outlet;  !- Node 2 Name


!-   ===========  ALL OBJECTS IN CLASS: OUTDOORAIR:NODE ===========

OutdoorAir:Node,
    DXVAV Sys 1 Outside Air Inlet;  !- Name


!-   ===========  ALL OBJECTS IN CLASS: AVAILABILITYMANAGER:NIGHTCYCLE ===========

AvailabilityManager:NightCycle,
    DXVAV Sys 1 Availability,!- Name
    HVACTemplate-Always 1,   !- Applicability Schedule Name
    AvailSched_1,            !- Fan Schedule Name
    StayOff,                 !- Control Type
    1,                       !- Thermostat Tolerance {deltaC}
    FixedRunTime,            !- Cycling Run Time Control Type
    1800;                    !- Cycling Run Time {s}


!-   ===========  ALL OBJECTS IN CLASS: AVAILABILITYMANAGERASSIGNMENTLIST ===========

AvailabilityManagerAssignmentList,
    DXVAV Sys 1 Availability Managers,  !- Name
    AvailabilityManager:NightCycle,  !- Availability Manager 1 Object Type
    DXVAV Sys 1 Availability;!- Availability Manager 1 Name


!-   ===========  ALL OBJECTS IN CLASS: SETPOINTMANAGER:MIXEDAIR ===========

SetpointManager:MixedAir,
    DXVAV Sys 1 Cooling Coil Air Temp Manager,  !- Name
    Temperature,             !- Control Variable
    DXVAV Sys 1 Supply Fan Outlet,  !- Reference Setpoint Node Name
    DXVAV Sys 1 Heating Coil Outlet,  !- Fan Inlet Node Name
    DXVAV Sys 1 Supply Fan Outlet,  !- Fan Outlet Node Name
    DXVAV Sys 1 Mixed Air Nodes;  !- Setpoint Node or NodeList Name

SetpointManager:MixedAir,
    DXVAV Sys 1 Heating Coil Air Temp Manager,  !- Name
    Temperature,             !- Control Variable
    DXVAV Sys 1 Supply Path Inlet,  !- Reference Setpoint Node Name
    DXVAV Sys 1 Heating Coil Outlet,  !- Fan Inlet Node Name
    DXVAV Sys 1 Supply Fan Outlet,  !- Fan Outlet Node Name
    DXVAV Sys 1 Heating Coil Outlet;  !- Setpoint Node or NodeList Name


!-   ===========  ALL OBJECTS IN CLASS: SETPOINTMANAGER:WARMEST ===========

SetpointManager:Warmest,
    DXVAV Sys 1 SAT Reset Manager,  !- Name
    Temperature,             !- Control Variable
    DXVAV Sys 1,             !- HVAC Air Loop Name
    12,                      !- Minimum Setpoint Temperature {C}
    17.7,                    !- Maximum Setpoint Temperature {C}
    MaximumTemperature,      !- Strategy
    DXVAV Sys 1 SAT Setpoint Nodes;  !- Setpoint Node or NodeList Name


!-   ===========  ALL OBJECTS IN CLASS: CURVE:QUADRATIC ===========

Curve:Quadratic,
    DXVAV Sys 1 DX Coil PLF, !- Name
    0.85,                    !- Coefficient1 Constant
    0.15,                    !- Coefficient2 x
    0,                       !- Coefficient3 x**2
    0,                       !- Minimum Value of x
    1;                       !- Maximum Value of x


!-   ===========  ALL OBJECTS IN CLASS: CURVE:CUBIC ===========

Curve:Cubic,
    DXVAV Sys 1 DX Coil Cap-FF,  !- Name
    0.47278589,              !- Coefficient1 Constant
    1.2433415,               !- Coefficient2 x
    -1.0387055,              !- Coefficient3 x**2
    0.32257813,              !- Coefficient4 x**3
    0.5,                     !- Minimum Value of x
    1.5,                     !- Maximum Value of x
    ,                        !- Minimum Curve Output
    ,                        !- Maximum Curve Output
    Dimensionless,           !- Input Unit Type for X
    Dimensionless;           !- Output Unit Type

Curve:Cubic,
    DXVAV Sys 1 DX Coil EIR-FF,  !- Name
    1.0079484,               !- Coefficient1 Constant
    0.34544129,              !- Coefficient2 x
    -.6922891,               !- Coefficient3 x**2
    0.33889943,              !- Coefficient4 x**3
    0.5,                     !- Minimum Value of x
    1.5,                     !- Maximum Value of x
    ,                        !- Minimum Curve Output
    ,                        !- Maximum Curve Output
    Dimensionless,           !- Input Unit Type for X
    Dimensionless;           !- Output Unit Type


!-   ===========  ALL OBJECTS IN CLASS: CURVE:BIQUADRATIC ===========

Curve:Biquadratic,
    DXVAV Sys 1 DX Coil Cap-FT,  !- Name
    0.476428,                !- Coefficient1 Constant
    0.0401147,               !- Coefficient2 x
    0.000226411,             !- Coefficient3 x**2
    -.000827136,             !- Coefficient4 y
    -.0000073224,            !- Coefficient5 y**2
    -.000446278,             !- Coefficient6 x*y
    12.77778,                !- Minimum Value of x
    23.88889,                !- Maximum Value of x
    23.88889,                !- Minimum Value of y
    46.11111,                !- Maximum Value of y
    ,                        !- Minimum Curve Output
    ,                        !- Maximum Curve Output
    Dimensionless,           !- Input Unit Type for X
    Dimensionless,           !- Input Unit Type for Y
    Dimensionless;           !- Output Unit Type

Curve:Biquadratic,
    DXVAV Sys 1 DX Coil EIR-FT,  !- Name
    0.632475,                !- Coefficient1 Constant
    -.0121321,               !- Coefficient2 x
    0.000507773,             !- Coefficient3 x**2
    0.0155377,               !- Coefficient4 y
    0.00027284,              !- Coefficient5 y**2
    -.000679201,             !- Coefficient6 x*y
    12.77778,                !- Minimum Value of x
    23.88889,                !- Maximum Value of x
    23.88889,                !- Minimum Value of y
    46.11111,                !- Maximum Value of y
    ,                        !- Minimum Curve Output
    ,                        !- Maximum Curve Output
    Dimensionless,           !- Input Unit Type for X
    Dimensionless,           !- Input Unit Type for Y
    Dimensionless;           !- Output Unit Type

Curve:Biquadratic,
    DXVAV Sys 1 DX Coil Low Cap-FT,  !- Name
    0.476428,                !- Coefficient1 Constant
    0.0401147,               !- Coefficient2 x
    0.000226411,             !- Coefficient3 x**2
    -.000827136,             !- Coefficient4 y
    -.0000073224,            !- Coefficient5 y**2
    -.000446278,             !- Coefficient6 x*y
    12.77778,                !- Minimum Value of x
    23.88889,                !- Maximum Value of x
    23.88889,                !- Minimum Value of y
    46.11111,                !- Maximum Value of y
    ,                        !- Minimum Curve Output
    ,                        !- Maximum Curve Output
    Dimensionless,           !- Input Unit Type for X
    Dimensionless,           !- Input Unit Type for Y
    Dimensionless;           !- Output Unit Type

Curve:Biquadratic,
    DXVAV Sys 1 DX Coil Low EIR-FT,  !- Name
    0.774645,                !- Coefficient1 Constant
    -.0343731,               !- Coefficient2 x
    0.000783173,             !- Coefficient3 x**2
    0.0146596,               !- Coefficient4 y
    0.000488851,             !- Coefficient5 y**2
    -.000752036,             !- Coefficient6 x*y
    12.77778,                !- Minimum Value of x
    23.88889,                !- Maximum Value of x
    23.88889,                !- Minimum Value of y
    46.11111,                !- Maximum Value of y
    ,                        !- Minimum Curve Output
    ,                        !- Maximum Curve Output
    Dimensionless,           !- Input Unit Type for X
    Dimensionless,           !- Input Unit Type for Y
    Dimensionless;           !- Output Unit Type


!-   ===========  ALL OBJECTS IN CLASS: CURVE:RECTANGULARHYPERBOLA2 ===========

Curve:RectangularHyperbola2,
    BatteryChargeCurve,      !- Name
    -.2765,                  !- Coefficient1 C1
    -93.27,                  !- Coefficient2 C2
    0.0068,                  !- Coefficient3 C3
    0,                       !- Minimum Value of x
    1,                       !- Maximum Value of x
    -100,                    !- Minimum Curve Output
    100;                     !- Maximum Curve Output

Curve:RectangularHyperbola2,
    BatteryDischargeCurve,   !- Name
    0.0899,                  !- Coefficient1 C1
    -98.24,                  !- Coefficient2 C2
    -.0082,                  !- Coefficient3 C3
    0,                       !- Minimum Value of x
    1,                       !- Maximum Value of x
    -100,                    !- Minimum Curve Output
    100;                     !- Maximum Curve Output


!-   ===========  ALL OBJECTS IN CLASS: CURVE:DOUBLEEXPONENTIALDECAY ===========

Curve:DoubleExponentialDecay,
    old_BatteryCycleCurve,   !- Name
    1380,                    !- Coefficient1 C1
    6834,                    !- Coefficient2 C2
    -8.75,                   !- Coefficient3 C3
    6747,                    !- Coefficient4 C4
    -6.22,                   !- Coefficient5 C5
    0,                       !- Minimum Value of x
    1;                       !- Maximum Value of x

Curve:DoubleExponentialDecay,
    new_BatteryCycleCurve,   !- Name
    1380,                    !- Coefficient1 C1
    34170,                   !- Coefficient2 C2
    -1.75,                   !- Coefficient3 C3
    33735,                   !- Coefficient4 C4
    -1.244,                  !- Coefficient5 C5
    0,                       !- Minimum Value of x
    1;                       !- Maximum Value of x


!-   ===========  ALL OBJECTS IN CLASS: OUTPUT:VARIABLEDICTIONARY ===========

Output:VariableDictionary,
    regular;                 !- Key Field


!-   ===========  ALL OBJECTS IN CLASS: OUTPUT:SURFACES:LIST ===========

Output:Surfaces:List,
    Lines;                   !- Report Type


!-   ===========  ALL OBJECTS IN CLASS: OUTPUT:SURFACES:DRAWING ===========

Output:Surfaces:Drawing,
    DXF;                     !- Report Type


!-   ===========  ALL OBJECTS IN CLASS: OUTPUT:SCHEDULES ===========

Output:Schedules,
    Timestep;                !- Key Field


!-   ===========  ALL OBJECTS IN CLASS: OUTPUT:CONSTRUCTIONS ===========

Output:Constructions,
    Constructions,           !- Details Type 1
    Materials;               !- Details Type 2


!-   ===========  ALL OBJECTS IN CLASS: OUTPUT:ENERGYMANAGEMENTSYSTEM ===========

Output:EnergyManagementSystem,
    Verbose,                 !- Actuator Availability Dictionary Reporting
    Verbose,                 !- Internal Variable Availability Dictionary Reporting
    ErrorsOnly;              !- EMS Runtime Language Debug Output Level


!-   ===========  ALL OBJECTS IN CLASS: OUTPUT:TABLE:SUMMARYREPORTS ===========

Output:Table:SummaryReports,
    AllSummary;              !- Report 1 Name


!-   ===========  ALL OBJECTS IN CLASS: OUTPUTCONTROL:TABLE:STYLE ===========

OutputControl:Table:Style,
    HTML;                    !- Column Separator


!-   ===========  ALL OBJECTS IN CLASS: OUTPUT:VARIABLE ===========

Output:Variable,
    *,                       !- Key Value
    Zone Air Temperature,    !- Variable Name
    Timestep;                !- Reporting Frequency

Output:Variable,
    *,                       !- Key Value
    Site Outdoor Air Relative Humidity,  !- Variable Name
    Timestep;                !- Reporting Frequency

Output:Variable,
    Whole Building,          !- Key Value
    Facility Total Electricity Demand Rate,  !- Variable Name
    Timestep;                !- Reporting Frequency

Output:Variable,
    *,                       !- Key Value
    Site Outdoor Air Drybulb Temperature,  !- Variable Name
    Timestep;                !- Reporting Frequency

Output:Variable,
    *,                       !- Key Value
    Zone Air Relative Humidity,  !- Variable Name
    Timestep;                !- Reporting Frequency

Output:Variable,
    *,                       !- Key Value
    System Node Temperature, !- Variable Name
    Timestep;                !- Reporting Frequency

Output:Variable,
    *,                       !- Key Value
    System Node Setpoint Temperature,  !- Variable Name
    Timestep;                !- Reporting Frequency

Output:Variable,
    *,                       !- Key Value
    System Node Temperature, !- Variable Name
    Timestep;                !- Reporting Frequency

Output:Variable,
    *,                       !- Key Value
    System Node Setpoint Temperature,  !- Variable Name
    Timestep;                !- Reporting Frequency

Output:Variable,
    *,                       !- Key Value
    Site Direct Solar Radiation Rate per Area,  !- Variable Name
    Timestep;                !- Reporting Frequency

Output:Variable,
    *,                       !- Key Value
    Facility Net Purchased Electricity Rate,  !- Variable Name
    Timestep;                !- Reporting Frequency

Output:Variable,
    DXVAV Sys 1 Cooling Coil,!- Key Value
    Cooling Coil Total Cooling Rate,  !- Variable Name
    TimeStep;                !- Reporting Frequency

Output:Variable,
    DXVAV Sys 1 Cooling Coil,!- Key Value
    Cooling Coil Electricity Rate,  !- Variable Name
    TimeStep;                !- Reporting Frequency

Output:Variable,
    DXVAV Sys 1 Heating Coil,!- Key Value
    Heating Coil Heating Rate,  !- Variable Name
    TimeStep;                !- Reporting Frequency

Output:Variable,
    DXVAV Sys 1 Heating Coil,!- Key Value
    Heating Coil Electricity Rate,  !- Variable Name
    TimeStep;                !- Reporting Frequency

Output:Variable,
    Thermal Zone: Space 103 LAB B Reheat Coil,  !- Key Value
    Heating Coil Heating Rate,  !- Variable Name
    TimeStep;                !- Reporting Frequency

Output:Variable,
    Thermal Zone: Space 102 - Plus Reheat Coil,  !- Key Value
    Heating Coil Heating Rate,  !- Variable Name
    TimeStep;                !- Reporting Frequency

Output:Variable,
    Thermal Zone: Space 105 LAB A Reheat Coil,  !- Key Value
    Heating Coil Heating Rate,  !- Variable Name
    TimeStep;                !- Reporting Frequency

Output:Variable,
    DXVAV Sys 1 Supply Fan,  !- Key Value
    Fan Electricity Rate,    !- Variable Name
    TimeStep;                !- Reporting Frequency

Output:Variable,
    DXVAV Sys 1 Supply Fan,  !- Key Value
    Fan Air Mass Flow Rate,  !- Variable Name
    TimeStep;                !- Reporting Frequency

Output:Variable,
    DXVAV Sys 1 Return Fan,  !- Key Value
    Fan Electricity Rate,    !- Variable Name
    TimeStep;                !- Reporting Frequency

Output:Variable,
    DXVAV Sys 1 Mixed Air Outlet,  !- Key Value
    System Node Temperature, !- Variable Name
    TimeStep;                !- Reporting Frequency

Output:Variable,
    DXVAV Sys 1 Cooling Coil Outlet,  !- Key Value
    System Node Temperature, !- Variable Name
    TimeStep;                !- Reporting Frequency

Output:Variable,
    DXVAV Sys 1 Heating Coil Outlet,  !- Key Value
    System Node Temperature, !- Variable Name
    TimeStep;                !- Reporting Frequency

Output:Variable,
    DXVAV Sys 1 Supply Fan Outlet,  !- Key Value
    System Node Temperature, !- Variable Name
    TimeStep;                !- Reporting Frequency

Output:Variable,
    Thermal Zone: Space 103 LAB B Zone Equip Inlet,  !- Key Value
    System Node Temperature, !- Variable Name
    TimeStep;                !- Reporting Frequency

Output:Variable,
    Thermal Zone: Space 102 - Plus Zone Equip Inlet,  !- Key Value
    System Node Temperature, !- Variable Name
    TimeStep;                !- Reporting Frequency

Output:Variable,
    Thermal Zone: Space 105 LAB A Zone Equip Inlet,  !- Key Value
    System Node Temperature, !- Variable Name
    TimeStep;                !- Reporting Frequency

Output:Variable,
    DXVAV Sys 1,             !- Key Value
    Air System Outdoor Air Economizer Status,  !- Variable Name
    TimeStep;                !- Reporting Frequency

Output:Variable,
    DXVAV Sys 1,             !- Key Value
    Air System Outdoor Air Flow Fraction,  !- Variable Name
    TimeStep;                !- Reporting Frequency

Output:Variable,
    DXVAV Sys 1 Cooling Coil,!- Key Value
    Cooling Coil Sensible Cooling Rate,  !- Variable Name
    TimeStep;                !- Reporting Frequency

Output:Variable,
    DXVAV Sys 1 Cooling Coil,!- Key Value
    Cooling Coil Latent Cooling Rate,  !- Variable Name
    TimeStep;                !- Reporting Frequency

Output:Variable,
    DXVAV Sys 1 Cooling Coil,!- Key Value
    Cooling Coil Runtime Fraction,  !- Variable Name
    TimeStep;                !- Reporting Frequency

Output:Variable,
    DXVAV Sys 1 Mixed Air Outlet,  !- Key Value
    System Node Mass Flow Rate,  !- Variable Name
    TimeStep;                !- Reporting Frequency

Output:Variable,
    DXVAV Sys 1 Supply Fan Outlet,  !- Key Value
    System Node Mass Flow Rate,  !- Variable Name
    TimeStep;                !- Reporting Frequency

Output:Variable,
    DXVAV Sys 1 Mixed Air Outlet,  !- Key Value
    System Node Humidity Ratio,  !- Variable Name
    TimeStep;                !- Reporting Frequency

Output:Variable,
    DXVAV Sys 1 Supply Fan Outlet,  !- Key Value
    System Node Humidity Ratio,  !- Variable Name
    TimeStep;                !- Reporting Frequency

Output:Variable,
    DXVAV Sys 1 Supply Fan Outlet,  !- Key Value
    System Node Setpoint Temperature,  !- Variable Name
    TimeStep;                !- Reporting Frequency

Output:Variable,
    Thermal Zone: Space 103 LAB B, !- Key Value
    Zone Thermostat Heating Setpoint Temperature,  !- Variable Name
    TimeStep;                !- Reporting Frequency

Output:Variable,
    Thermal Zone: Space 103 LAB B, !- Key Value
    Zone Thermostat Cooling Setpoint Temperature,  !- Variable Name
    TimeStep;                !- Reporting Frequency

Output:Variable,
    Thermal Zone: Space 103 LAB B, !- Key Value
    Zone Predicted Sensible Load to Heating Setpoint Heat Transfer Rate,  !- Variable Name
    TimeStep;                !- Reporting Frequency

Output:Variable,
    Thermal Zone: Space 103 LAB B, !- Key Value
    Zone Predicted Sensible Load to Cooling Setpoint Heat Transfer Rate,  !- Variable Name
    TimeStep;                !- Reporting Frequency

Output:Variable,
    Thermal Zone: Space 103 LAB B VAV Reheat,  !- Key Value
    Zone Air Terminal VAV Damper Position,  !- Variable Name
    TimeStep;                !- Reporting Frequency

Output:Variable,
    Thermal Zone: Space 102 - Plus,  !- Key Value
    Zone Thermostat Heating Setpoint Temperature,  !- Variable Name
    TimeStep;                !- Reporting Frequency

Output:Variable,
    Thermal Zone: Space 102 - Plus,  !- Key Value
    Zone Thermostat Cooling Setpoint Temperature,  !- Variable Name
    TimeStep;                !- Reporting Frequency

Output:Variable,
    Thermal Zone: Space 102 - Plus,  !- Key Value
    Zone Predicted Sensible Load to Heating Setpoint Heat Transfer Rate,  !- Variable Name
    TimeStep;                !- Reporting Frequency

Output:Variable,
    Thermal Zone: Space 102 - Plus,  !- Key Value
    Zone Predicted Sensible Load to Cooling Setpoint Heat Transfer Rate,  !- Variable Name
    TimeStep;                !- Reporting Frequency

Output:Variable,
    Thermal Zone: Space 102 - Plus VAV Reheat,  !- Key Value
    Zone Air Terminal VAV Damper Position,  !- Variable Name
    TimeStep;                !- Reporting Frequency

Output:Variable,
    Thermal Zone: Space 105 LAB A, !- Key Value
    Zone Thermostat Heating Setpoint Temperature,  !- Variable Name
    TimeStep;                !- Reporting Frequency

Output:Variable,
    Thermal Zone: Space 105 LAB A, !- Key Value
    Zone Thermostat Cooling Setpoint Temperature,  !- Variable Name
    TimeStep;                !- Reporting Frequency

Output:Variable,
    Thermal Zone: Space 105 LAB A, !- Key Value
    Zone Predicted Sensible Load to Heating Setpoint Heat Transfer Rate,  !- Variable Name
    TimeStep;                !- Reporting Frequency

Output:Variable,
    Thermal Zone: Space 105 LAB A, !- Key Value
    Zone Predicted Sensible Load to Cooling Setpoint Heat Transfer Rate,  !- Variable Name
    TimeStep;                !- Reporting Frequency

Output:Variable,
    Thermal Zone: Space 105 LAB A VAV Reheat,  !- Key Value
    Zone Air Terminal VAV Damper Position,  !- Variable Name
    TimeStep;                !- Reporting Frequency

Output:Variable,
    *,                       !- Key Value
    Site Day Type Index ,    !- Variable Name
    Timestep;                !- Reporting Frequency

Output:Variable,
    *,                       !- Key Value
    Zone Windows Total Transmitted Solar Radiation Rate,  !- Variable Name
    Timestep;                !- Reporting Frequency

Output:Variable,
    *,                       !- Key Value
    Zone Exterior Windows Total Transmitted Beam Solar Radiation Rate,  !- Variable Name
    Timestep;                !- Reporting Frequency

Output:Variable,
    *,                       !- Key Value
    Zone Exterior Windows Total Transmitted Diffuse Solar Radiation Rate,  !- Variable Name
    Timestep;                !- Reporting Frequency

Output:Variable,
    *,                       !- Key Value
    Zone Total Internal Convective Heating Rate,  !- Variable Name
    Timestep;                !- Reporting Frequency

Output:Variable,
    *,                       !- Key Value
    Zone Total Internal Radiant Heating Rate,  !- Variable Name
    Timestep;                !- Reporting Frequency

Output:Variable,
    *,                       !- Key Value
    Zone Total Internal Visible Radiation Heating Rate,  !- Variable Name
    Timestep;                !- Reporting Frequency

Output:Variable,
    *,                       !- Key Value
    Zone Total Internal Latent Gain Rate,  !- Variable Name
    Timestep;                !- Reporting Frequency

Output:Variable,
    *,                       !- Key Value
    Zone Total Internal Total Heating Rate,  !- Variable Name
    Timestep;                !- Reporting Frequency

Output:Variable,
    *,                       !- Key Value
    Zone People Occupant Count,  !- Variable Name
    Timestep;                !- Reporting Frequency

Output:Variable,
    *,                       !- Key Value
    Zone People Convective Heating Rate,  !- Variable Name
    Timestep;                !- Reporting Frequency

Output:Variable,
    *,                       !- Key Value
    Zone People Radiant Heating Rate,  !- Variable Name
    Timestep;                !- Reporting Frequency

Output:Variable,
    *,                       !- Key Value
    Zone People Sensible Heating Rate,  !- Variable Name
    Timestep;                !- Reporting Frequency

Output:Variable,
    *,                       !- Key Value
    Zone People Latent Gain Rate,  !- Variable Name
    Timestep;                !- Reporting Frequency

Output:Variable,
    *,                       !- Key Value
    Zone People Total Heating Rate,  !- Variable Name
    Timestep;                !- Reporting Frequency

Output:Variable,
    *,                       !- Key Value
    Zone Electric Equipment Radiant Heating Rate,  !- Variable Name
    Timestep;                !- Reporting Frequency

Output:Variable,
    *,                       !- Key Value
    Zone Electric Equipment Convective Heating Rate,  !- Variable Name
    Timestep;                !- Reporting Frequency

Output:Variable,
    *,                       !- Key Value
    Zone Electric Equipment Latent Gain Rate,  !- Variable Name
    Timestep;                !- Reporting Frequency

Output:Variable,
    *,                       !- Key Value
    Zone Electric Equipment Lost Heat Rate,  !- Variable Name
    Timestep;                !- Reporting Frequency

Output:Variable,
    *,                       !- Key Value
    Zone Electric Equipment Total Heating Rate,  !- Variable Name
    Timestep;                !- Reporting Frequency

Output:Variable,
    *,                       !- Key Value
    Zone Infiltration Sensible Heat Gain Energy,  !- Variable Name
    Timestep;                !- Reporting Frequency

Output:Variable,
    *,                       !- Key Value
    Zone Infiltration Sensible Heat Loss Energy,  !- Variable Name
    Timestep;                !- Reporting Frequency

Output:Variable,
    *,                       !- Key Value
    Zone Infiltration Latent Heat Gain Energy,  !- Variable Name
    Timestep;                !- Reporting Frequency

Output:Variable,
    *,                       !- Key Value
    Zone Infiltration Latent Heat Loss Energy,  !- Variable Name
    Timestep;                !- Reporting Frequency

Output:Variable,
    *,                       !- Key Value
    Zone Infiltration Total Heat Gain Energy,  !- Variable Name
    Timestep;                !- Reporting Frequency

Output:Variable,
    *,                       !- Key Value
    Zone Infiltration Total Heat Loss Energy,  !- Variable Name
    Timestep;                !- Reporting Frequency

Output:Variable,
    *,                       !- Key Value
    Zone Infiltration Mass Flow Rate,  !- Variable Name
    Timestep;                !- Reporting Frequency

Output:Variable,
    *,                       !- Key Value
    Zone Infiltration Current Density Volume Flow Rate,  !- Variable Name
    Timestep;                !- Reporting Frequency

Output:Variable,
    *,                       !- Key Value
    Zone Infiltration Air Change Rate,  !- Variable Name
    Timestep;                !- Reporting Frequency

Output:Variable,
    *,                       !- Key Value
    HVAC System Solver Iteration Count,  !- Variable Name
    Timestep;                !- Reporting Frequency

Output:Variable,
    *,                       !- Key Value
    Air System Solver Iteration Count,  !- Variable Name
    Timestep;                !- Reporting Frequency

Output:Variable,
    DXVAV Sys 1,             !- Key Value
    Air System Outdoor Air Mass Flow Rate,  !- Variable Name
    Timestep;                !- Reporting Frequency

Output:Variable,
    DXVAV Sys 1,             !- Key Value
    Air System Mixed Air Mass Flow Rate,  !- Variable Name
    Timestep;                !- Reporting Frequency

Output:Variable,
    DXVAV Sys 1,             !- Key Value
    Air System Outdoor Air Minimum Flow Fraction,  !- Variable Name
    Timestep;                !- Reporting Frequency

Output:Variable,
    *,                       !- Key Value
    Zone Air Terminal Outdoor Air Volume Flow Rate,  !- Variable Name
    Timestep;                !- Reporting Frequency

Output:Variable,
    *,                       !- Key Value
    Zone Air Terminal Minimum Air Flow Fraction,  !- Variable Name
    Timestep;                !- Reporting Frequency

Output:Variable,
    Min OA Sched,            !- Key Value
    Schedule Value,          !- Variable Name
    Timestep;                !- Reporting Frequency

Output:Variable,
    Thermal Zone: Space 103 LAB B Supply Inlet,  !- Key Value
    System Node Mass Flow Rate,  !- Variable Name
    Timestep;                !- Reporting Frequency

Output:Variable,
    Thermal Zone: Space 102 - Plus Supply Inlet,  !- Key Value
    System Node Mass Flow Rate,  !- Variable Name
    Timestep;                !- Reporting Frequency

Output:Variable,
    Thermal Zone: Space 105 LAB A Supply Inlet,  !- Key Value
    System Node Mass Flow Rate,  !- Variable Name
    Timestep;                !- Reporting Frequency

Output:Variable,
    *,                       !- Key Value
    Zone Heating Setpoint Not Met Time,  !- Variable Name
    Timestep;                !- Reporting Frequency

Output:Variable,
    *,                       !- Key Value
    Zone Cooling Setpoint Not Met Time,  !- Variable Name
    Timestep;                !- Reporting Frequency

Output:Variable,
    *,                       !- Key Value
    Zone Heating Setpoint Not Met While Occupied Time,  !- Variable Name
    Timestep;                !- Reporting Frequency

Output:Variable,
    *,                       !- Key Value
    Zone Cooling Setpoint Not Met While Occupied Time,  !- Variable Name
    Timestep;                !- Reporting Frequency

Output:Variable,
    DXVAV Sys 1,             !- Key Value
    Air System Outdoor Air Mechanical Ventilation Requested Mass Flow Rate,  !- Variable Name
    Timestep;                !- Reporting Frequency

Output:Variable,
    Thermal Zone: Space 103 LAB B Supply Inlet,  !- Key Value
    System Node Standard Density Volume Flow Rate,  !- Variable Name
    Timestep;                !- Reporting Frequency

Output:Variable,
    Thermal Zone: Space 102 - Plus Supply Inlet,  !- Key Value
    System Node Standard Density Volume Flow Rate,  !- Variable Name
    Timestep;                !- Reporting Frequency

Output:Variable,
    Thermal Zone: Space 105 LAB A Supply Inlet,  !- Key Value
    System Node Standard Density Volume Flow Rate,  !- Variable Name
    Timestep;                !- Reporting Frequency

Output:Variable,
    DXVAV Sys 1 Supply Fan Outlet,  !- Key Value
    System Node Standard Density Volume Flow Rate,  !- Variable Name
    Timestep;                !- Reporting Frequency

Output:Variable,
    *,                       !- Key Value
    Site Ground Temperature, !- Variable Name
    Timestep;                !- Reporting Frequency

Output:Variable,
    Surface 1,               !- Key Value
    Surface Inside Face Temperature,  !- Variable Name
    Timestep;                !- Reporting Frequency

Output:Variable,
    Surface 1,               !- Key Value
    Surface Outside Face Temperature,  !- Variable Name
    Timestep;                !- Reporting Frequency

Output:Variable,
    Surface 1,               !- Key Value
    Surface Inside Face Conduction Heat Transfer Rate,  !- Variable Name
    Timestep;                !- Reporting Frequency

Output:Variable,
    Surface 1,               !- Key Value
    Surface Inside Face Convection Heat Gain Rate,  !- Variable Name
    Timestep;                !- Reporting Frequency

Output:Variable,
    Surface 9,               !- Key Value
    Surface Inside Face Temperature,  !- Variable Name
    Timestep;                !- Reporting Frequency

Output:Variable,
    Surface 9,               !- Key Value
    Surface Outside Face Temperature,  !- Variable Name
    Timestep;                !- Reporting Frequency

Output:Variable,
    Surface 9,               !- Key Value
    Surface Inside Face Conduction Heat Transfer Rate,  !- Variable Name
    Timestep;                !- Reporting Frequency

Output:Variable,
    Surface 9,               !- Key Value
    Surface Inside Face Convection Heat Gain Rate,  !- Variable Name
    Timestep;                !- Reporting Frequency

Output:Variable,
    Surface 15,              !- Key Value
    Surface Inside Face Temperature,  !- Variable Name
    Timestep;                !- Reporting Frequency

Output:Variable,
    Surface 15,              !- Key Value
    Surface Outside Face Temperature,  !- Variable Name
    Timestep;                !- Reporting Frequency

Output:Variable,
    Surface 15,              !- Key Value
    Surface Inside Face Conduction Heat Transfer Rate,  !- Variable Name
    Timestep;                !- Reporting Frequency

Output:Variable,
    Surface 15,              !- Key Value
    Surface Inside Face Convection Heat Gain Rate,  !- Variable Name
    Timestep;                !- Reporting Frequency

Output:Variable,
    Surface 23,              !- Key Value
    Surface Inside Face Temperature,  !- Variable Name
    Timestep;                !- Reporting Frequency

Output:Variable,
    Surface 23,              !- Key Value
    Surface Outside Face Temperature,  !- Variable Name
    Timestep;                !- Reporting Frequency

Output:Variable,
    Surface 23,              !- Key Value
    Surface Inside Face Conduction Heat Transfer Rate,  !- Variable Name
    Timestep;                !- Reporting Frequency

Output:Variable,
    Surface 23,              !- Key Value
    Surface Inside Face Convection Heat Gain Rate,  !- Variable Name
    Timestep;                !- Reporting Frequency

Output:Variable,
    Surface 33,              !- Key Value
    Surface Inside Face Temperature,  !- Variable Name
    Timestep;                !- Reporting Frequency

Output:Variable,
    Surface 33,              !- Key Value
    Surface Outside Face Temperature,  !- Variable Name
    Timestep;                !- Reporting Frequency

Output:Variable,
    Surface 33,              !- Key Value
    Surface Inside Face Conduction Heat Transfer Rate,  !- Variable Name
    Timestep;                !- Reporting Frequency

Output:Variable,
    Surface 33,              !- Key Value
    Surface Inside Face Convection Heat Gain Rate,  !- Variable Name
    Timestep;                !- Reporting Frequency

Output:Variable,
    Surface 40,              !- Key Value
    Surface Inside Face Temperature,  !- Variable Name
    Timestep;                !- Reporting Frequency

Output:Variable,
    Surface 40,              !- Key Value
    Surface Outside Face Temperature,  !- Variable Name
    Timestep;                !- Reporting Frequency

Output:Variable,
    Surface 40,              !- Key Value
    Surface Inside Face Conduction Heat Transfer Rate,  !- Variable Name
    Timestep;                !- Reporting Frequency

Output:Variable,
    Surface 40,              !- Key Value
    Surface Inside Face Convection Heat Gain Rate,  !- Variable Name
    Timestep;                !- Reporting Frequency


!-   ===========  ALL OBJECTS IN CLASS: OUTPUT:METER:METERFILEONLY ===========

Output:Meter:MeterFileOnly,
    Electricity:Facility,    !- Key Name
    Hourly;                  !- Reporting Frequency

Output:Meter:MeterFileOnly,
    Electricity:Building,    !- Key Name
    Hourly;                  !- Reporting Frequency

Output:Meter:MeterFileOnly,
    InteriorLights:Electricity,  !- Key Name
    Hourly;                  !- Reporting Frequency

Output:Meter:MeterFileOnly,
    Electricity:HVAC,        !- Key Name
    Hourly;                  !- Reporting Frequency

Output:Meter:MeterFileOnly,
    Electricity:Facility,    !- Key Name
    runperiod;               !- Reporting Frequency

Output:Meter:MeterFileOnly,
    Electricity:Building,    !- Key Name
    runperiod;               !- Reporting Frequency

Output:Meter:MeterFileOnly,
    InteriorLights:Electricity,  !- Key Name
    runperiod;               !- Reporting Frequency

Output:Meter:MeterFileOnly,
    Electricity:HVAC,        !- Key Name
    runperiod;               !- Reporting Frequency

Output:Meter:MeterFileOnly,
    Heating:Electricity,     !- Key Name
    Hourly;                  !- Reporting Frequency

Output:Meter:MeterFileOnly,
    Cooling:Electricity,     !- Key Name
    Hourly;                  !- Reporting Frequency

Output:Meter:MeterFileOnly,
    Electricity:Zone:THERMAL ZONE: SPACE 103 LAB B,  !- Key Name
    Hourly;                  !- Reporting Frequency

Output:Meter:MeterFileOnly,
    Electricity:Zone:THERMAL ZONE: SPACE 102 - PLUS,  !- Key Name
    Hourly;                  !- Reporting Frequency

Output:Meter:MeterFileOnly,
    Electricity:Zone:THERMAL ZONE: SPACE 105 LAB A,  !- Key Name
    Hourly;                  !- Reporting Frequency

Output:Meter:MeterFileOnly,
    ElectricityNet:Facility, !- Key Name
    Hourly;                  !- Reporting Frequency


!-   ===========  ALL OBJECTS IN CLASS: OUTPUT:SQLITE ===========

Output:SQLite,
    SimpleAndTabular;        !- Option Type


!-   ===========  ALL OBJECTS IN CLASS: OUTPUT:DIAGNOSTICS ===========

Output:Diagnostics,
    DisplayExtraWarnings,    !- Key 1
    DisplayAdvancedReportVariables;  !- Key 2

